!Port 1 = Pin 1 = Input Port
!Port 2 = Pin 2 = Coupled Port
!Port 3 = Pin 3 = Isolated Port
!Port 4 = Pin 4 = Direct Port
# MHZ S DB R 50
!Freq dBS11      angS11      dBS12      angS12      dBS13      angS13      dBS14      angS14     
!    dBS21      angS21      dBS22      angS22      dBS23      angS23      dBS24      angS24     
!    dBS31      angS31      dBS32      angS32      dBS33      angS33      dBS34      angS34     
!    dBS41      angS41      dBS42      angS42      dBS43      angS43      dBS44      angS44     
100  -44.998727 130.694890  -43.198948 85.188010   -63.554695 -109.209320 -0.005754  -1.771935
     -43.201670 85.220976   -36.417840 72.191806   -0.097883  -5.689869   -63.598731 -110.292120
     -63.553143 -111.075610 -0.101672  -5.696815   -36.981120 77.837341   -43.209895 85.426407
     -0.009491  -1.772735   -63.460461 -110.043810 -43.186718 85.096721   -43.708911 140.363550
110  -44.487228 122.843200  -42.375763 84.852597   -63.045924 -112.664900 -0.008457  -1.941401
     -42.378888 85.035485   -35.573419 70.432680   -0.102735  -6.241520   -62.973333 -111.088740
     -62.930531 -112.119870 -0.106663  -6.247951   -35.988271 74.477310   -42.399336 84.772708
     -0.012416  -1.922676   -62.888563 -112.266380 -42.380694 84.719506   -43.217546 130.681220
120  -43.399874 115.512820  -41.658318 84.444829   -62.335915 -113.088130 -0.010610  -2.096029
     -41.653961 84.486195   -34.949961 67.874107   -0.105892  -6.790683   -62.172666 -113.649950
     -62.158277 -113.637170 -0.108132  -6.785188   -35.320417 69.923900   -41.654812 84.483456
     -0.012690  -2.093798   -62.375708 -112.560910 -41.630123 84.577677   -42.486300 117.043130
130  -42.896885 110.780890  -40.973955 84.190381   -61.667016 -113.880430 -0.012714  -2.252688
     -40.974712 84.185107   -34.372135 66.786997   -0.109969  -7.318438   -61.717313 -114.299170
     -61.924345 -114.379760 -0.111262  -7.326333   -34.763910 67.193108   -40.956211 84.150526
     -0.014579  -2.249828   -61.731259 -114.794470 -40.963663 84.154748   -42.221086 109.747880
140  -43.530604 104.690470  -40.337930 83.867563   -61.176546 -114.723380 -0.012859  -2.402102
     -40.340819 83.953480   -34.106463 68.264788   -0.111240  -7.861158   -61.216584 -113.088880
     -61.097299 -115.119260 -0.112546  -7.869307   -34.404494 67.373211   -40.317977 83.816389
     -0.015999  -2.406717   -61.154208 -114.270390 -40.321622 83.869023   -44.067545 109.048430
150  -43.842869 97.773288   -39.758161 83.575260   -60.648307 -114.448720 -0.014272  -2.551881
     -39.760370 83.482888   -33.822576 69.452302   -0.112748  -8.405882   -60.734735 -111.712200
     -60.883937 -113.880310 -0.115152  -8.405923   -34.065736 67.571287   -39.731316 83.499790
     -0.018432  -2.563308   -60.736231 -112.237490 -39.747276 83.639750   -45.924896 104.228090
160  -42.597504 98.786280   -39.205603 83.205807   -60.331886 -115.572160 -0.017015  -2.705121
     -39.203718 83.234776   -33.223445 67.458190   -0.118185  -8.945229   -60.214347 -115.166240
     -60.438567 -115.979620 -0.119232  -8.946378   -33.444438 66.228761   -39.191069 83.139638
     -0.020899  -2.711025   -60.290744 -114.161030 -39.201305 83.213000   -44.438395 96.187757
170  -41.100900 102.736470  -38.681840 82.838860   -59.736446 -117.297010 -0.016433  -2.875110
     -38.691249 82.855511   -32.397153 65.030197   -0.119028  -9.496142   -59.962638 -117.252120
     -59.756903 -118.420610 -0.120434  -9.493993   -32.644847 64.361951   -38.669331 82.857876
     -0.019225  -2.872770   -59.657986 -116.590610 -38.673448 82.798983   -41.643390 93.360795
180  -40.042290 105.594370  -38.197246 82.451718   -59.160286 -119.576950 -0.019030  -3.029786
     -38.207272 82.479055   -31.625609 63.549372   -0.122912  -10.019678  -59.428920 -119.307720
     -59.393012 -119.217090 -0.126334  -10.027075  -32.015502 63.619171   -38.183089 82.577124
     -0.020844  -3.023250   -59.125544 -118.575470 -38.188591 82.494982   -40.091885 92.112970
190  -39.638157 103.489290  -37.757716 82.136077   -58.978710 -119.424690 -0.022840  -3.183297
     -37.727861 82.244073   -31.155305 62.889795   -0.129501  -10.554377  -58.978785 -119.276120
     -59.003635 -120.564950 -0.131139  -10.563368  -31.615181 63.633156   -37.729393 82.203682
     -0.023856  -3.176304   -59.027778 -119.721260 -37.728137 82.162469   -39.490132 90.279656
200  -39.443379 100.094080  -37.304678 81.765584   -58.483511 -120.787480 -0.020361  -3.340354
     -37.311561 81.827381   -30.797936 62.494538   -0.128786  -11.090399  -58.738772 -119.888030
     -58.594840 -121.224270 -0.130009  -11.104613  -31.297405 63.122918   -37.288220 81.821830
     -0.022133  -3.333954   -58.774166 -120.672620 -37.289714 81.852243   -39.278581 86.501856
210  -39.196757 96.142080   -36.897507 81.539501   -58.283944 -121.794340 -0.019761  -3.485787
     -36.895017 81.488395   -30.429504 62.101730   -0.129609  -11.615115  -58.296049 -121.024100
     -58.292293 -122.731590 -0.131356  -11.637301  -30.976872 62.418574   -36.882634 81.532450
     -0.021246  -3.486088   -58.335414 -120.852730 -36.882030 81.527401   -39.115556 84.125860
220  -38.846542 91.930370   -36.501331 81.240914   -58.021456 -123.032300 -0.024285  -3.626358
     -36.511396 81.230857   -29.967253 61.498648   -0.137284  -12.129578  -58.100513 -122.018460
     -58.151947 -123.272950 -0.137270  -12.150128  -30.521830 61.974083   -36.495839 81.211389
     -0.025636  -3.623410   -58.096782 -121.632820 -36.491470 81.140698   -38.754134 83.357200
230  -38.718069 88.425384   -36.125703 80.859339   -57.744458 -124.546820 -0.024217  -3.788998
     -36.118407 80.885099   -29.533063 60.789810   -0.139348  -12.667762  -57.906384 -122.425130
     -57.740719 -124.942960 -0.139291  -12.689442  -30.006028 61.145123   -36.108332 80.853395
     -0.025833  -3.784414   -57.747735 -122.393000 -36.114368 80.865799   -38.571267 83.975207
240  -38.587747 85.545264   -35.760550 80.608654   -57.469807 -125.782560 -0.021666  -3.946804
     -35.768974 80.534655   -29.149112 59.906458   -0.138125  -13.212945  -57.637928 -124.499950
     -57.493902 -126.610550 -0.138184  -13.228503  -29.531598 60.194041   -35.755097 80.578483
     -0.023754  -3.946358   -57.553274 -124.027080 -35.745118 80.495313   -38.389172 84.906989
250  -38.489670 82.937917   -35.418433 80.250143   -57.143600 -127.418200 -0.021669  -4.093896
     -35.429015 80.106930   -28.742915 59.570445   -0.139865  -13.738786  -57.340836 -124.947760
     -57.345500 -128.306330 -0.139951  -13.754522  -29.095445 59.161634   -35.407138 80.179538
     -0.023762  -4.092903   -57.200751 -124.572830 -35.406327 80.186730   -38.248240 85.811568
260  -38.470280 80.731320   -35.101713 79.903608   -57.012101 -129.007930 -0.027604  -4.226027
     -35.092724 79.840484   -28.425716 59.544092   -0.147801  -14.249825  -57.071863 -126.042410
     -57.045279 -128.549180 -0.147377  -14.267418  -28.720595 58.473772   -35.083574 79.860030
     -0.029044  -4.223324   -57.092725 -126.096270 -35.082707 79.854445   -38.208587 86.269350
270  -38.575920 79.960962   -34.776936 79.563553   -56.716421 -128.622110 -0.029256  -4.379931
     -34.771852 79.584970   -28.164521 59.825473   -0.150992  -14.788502  -56.861120 -126.533130
     -56.883541 -129.834750 -0.151226  -14.805349  -28.464176 57.887495   -34.757254 79.579586
     -0.031916  -4.387303   -56.731847 -126.606190 -34.765871 79.564874   -38.281308 86.337516
280  -38.817336 79.432432   -34.464920 79.240330   -56.525581 -130.068320 -0.027887  -4.544625
     -34.462056 79.287793   -27.953959 59.677922   -0.150835  -15.329541  -56.590996 -127.933020
     -56.763293 -130.217370 -0.151189  -15.347474  -28.192885 57.256295   -34.459410 79.204125
     -0.029843  -4.544727   -56.618334 -127.426490 -34.446038 79.251734   -38.505199 85.577196
290  -38.951892 78.622729   -34.167493 78.939911   -56.394539 -130.347900 -0.025454  -4.694959
     -34.164229 78.870713   -27.730297 59.426146   -0.150861  -15.870054  -56.443051 -128.952680
     -56.537109 -130.145380 -0.152424  -15.877685  -27.997844 56.494216   -34.158602 78.937864
     -0.028460  -4.703935   -56.343750 -128.204890 -34.156028 78.959479   -38.517238 84.234900
300  -38.745967 78.326886   -33.886139 78.601159   -56.262498 -131.249550 -0.027011  -4.831495
     -33.886172 78.541123   -27.467039 59.095412   -0.154609  -16.369265  -56.192743 -129.349220
     -56.255404 -131.219830 -0.156303  -16.389726  -27.745396 56.018784   -33.868276 78.606305
     -0.031011  -4.837506   -56.042633 -130.244810 -33.869182 78.596340   -38.438223 81.931980
310  -38.500348 77.655282   -33.604724 78.307128   -56.106262 -132.056990 -0.031153  -4.963524
     -33.609325 78.274931   -27.232632 58.737990   -0.159821  -16.886052  -55.999129 -131.855520
     -56.138608 -132.707610 -0.161939  -16.898237  -27.536780 55.660292   -33.593595 78.250991
     -0.034781  -4.966878   -55.867375 -129.880420 -33.603791 78.262007   -38.142058 79.941916
320  -38.396627 76.692307   -33.345434 77.941223   -55.988315 -132.523470 -0.032627  -5.120196
     -33.341168 77.971950   -27.044674 57.924592   -0.162575  -17.413974  -55.942795 -131.769230
     -56.061362 -133.286580 -0.164833  -17.434530  -27.429846 55.086940   -33.330010 77.925308
     -0.035771  -5.129405   -55.914712 -132.021420 -33.335137 77.980815   -38.078169 77.505803
330  -38.387269 75.465515   -33.081382 77.631994   -55.929807 -133.888410 -0.031912  -5.286393
     -33.084322 77.641867   -26.915139 56.927737   -0.162388  -17.946677  -55.942530 -133.242670
     -55.995065 -134.082120 -0.165759  -17.978769  -27.334860 54.741503   -33.071829 77.605124
     -0.034872  -5.290154   -55.701676 -132.689110 -33.073447 77.586879   -38.070130 75.791062
340  -38.402130 72.844819   -32.829348 77.319183   -55.828934 -135.272050 -0.031084  -5.435799
     -32.828665 77.311521   -26.799600 55.908539   -0.162486  -18.474076  -55.883311 -133.623530
     -55.847453 -135.445650 -0.164701  -18.507826  -27.274378 53.843347   -32.819341 77.253739
     -0.032970  -5.448613   -55.675011 -132.809990 -32.819592 77.319900   -38.081073 74.134749
350  -38.497595 70.459965   -32.578630 77.010142   -55.777412 -135.667040 -0.030088  -5.566300
     -32.585149 76.972028   -26.720739 54.579904   -0.162648  -18.976870  -55.846209 -135.139250
     -55.855862 -136.224590 -0.165736  -19.012958  -27.246096 53.179117   -32.568351 76.977659
     -0.032943  -5.577513   -55.801361 -134.039110 -32.575729 77.013103   -38.184896 73.355498
360  -38.783214 66.341736   -32.349692 76.699036   -55.881267 -136.348640 -0.030592  -5.696769
     -32.348729 76.687071   -26.741538 53.529821   -0.163359  -19.484159  -55.892177 -135.443480
     -55.850079 -137.287940 -0.166602  -19.517051  -27.256038 52.289588   -32.340930 76.657231
     -0.033116  -5.710715   -55.737909 -134.605140 -32.339698 76.695118   -38.597051 73.351788
370  -39.551137 61.612711   -32.118203 76.406264   -55.775252 -137.060450 -0.031241  -5.849372
     -32.123605 76.391189   -26.819260 52.247326   -0.166258  -20.020060  -55.886777 -135.404460
     -56.019781 -137.456450 -0.168113  -20.047665  -27.331223 51.172612   -32.108964 76.393438
     -0.034799  -5.856166   -55.818311 -135.938820 -32.110137 76.345900   -39.426640 73.193149
380  -40.232884 55.887825   -31.895256 76.005203   -55.895869 -137.437570 -0.032413  -6.012596
     -31.896183 76.080976   -26.971324 51.063730   -0.166665  -20.551958  -55.891746 -135.197220
     -56.110526 -137.710580 -0.169664  -20.583925  -27.451479 50.029156   -31.888587 76.030356
     -0.035246  -6.012789   -55.754239 -135.418170 -31.886491 76.000473   -40.634744 73.300538
390  -41.189898 48.669315   -31.677223 75.725697   -55.883940 -137.002570 -0.031744  -6.164851
     -31.682608 75.727695   -27.132233 49.627188   -0.167433  -21.081082  -56.003909 -135.006410
     -56.052862 -137.394290 -0.170346  -21.112213  -27.582797 48.536308   -31.664607 75.708810
     -0.035829  -6.163647   -55.721913 -134.569250 -31.662312 75.731918   -41.930483 71.009727
400  -42.125984 40.622787   -31.468133 75.392388   -55.973452 -136.803100 -0.031590  -6.293584
     -31.466242 75.406455   -27.279167 48.010837   -0.168047  -21.592965  -55.915715 -134.818890
     -56.056758 -136.898530 -0.170564  -21.618717  -27.734421 46.934375   -31.455532 75.355475
     -0.034754  -6.293029   -55.784598 -133.893730 -31.460932 75.396190   -43.744271 68.474748
410  -43.071031 32.771579   -31.264781 75.117411   -55.965001 -136.334860 -0.032220  -6.415580
     -31.269178 75.122422   -27.392989 46.409654   -0.169856  -22.095836  -55.844157 -133.842030
     -56.083742 -136.759950 -0.172090  -22.125342  -27.844730 45.601806   -31.245962 75.082836
     -0.035521  -6.425388   -55.760936 -133.998640 -31.253628 75.113097   -45.517883 63.387178
420  -43.700459 24.375501   -31.060659 74.785679   -55.727767 -135.253320 -0.031961  -6.571099
     -31.069194 74.782425   -27.485299 44.805136   -0.171920  -22.631631  -55.771680 -134.173850
     -55.936475 -135.868960 -0.173287  -22.660495  -27.959750 44.528802   -31.049711 74.759779
     -0.035905  -6.573997   -55.567331 -133.655960 -31.049552 74.769926   -47.075768 55.437933
430  -44.534199 18.230961   -30.863229 74.443048   -55.509915 -134.604670 -0.032844  -6.732733
     -30.865129 74.467133   -27.534317 43.249978   -0.173497  -23.172859  -55.536984 -133.711340
     -55.646090 -135.919140 -0.175579  -23.204806  -28.060388 43.374103   -30.852902 74.426802
     -0.035902  -6.737868   -55.435804 -133.257960 -30.847973 74.391005   -48.216563 44.143774
440  -44.983741 13.561558   -30.669366 74.143973   -55.327252 -134.588830 -0.032755  -6.892157
     -30.669669 74.123627   -27.488804 41.764670   -0.174541  -23.712630  -55.414791 -133.601170
     -55.437811 -134.948540 -0.176573  -23.731794  -28.044891 42.357843   -30.656162 74.075808
     -0.036106  -6.888195   -55.191018 -132.832480 -30.658809 74.110935   -48.253626 34.429137
450  -45.233552 13.446692   -30.485278 73.834268   -55.140457 -134.683320 -0.033312  -7.015718
     -30.486842 73.818215   -27.396980 40.685681   -0.175736  -24.215956  -55.309779 -133.572180
     -55.122229 -134.602710 -0.176862  -24.239649  -27.981105 41.862359   -30.471758 73.770815
     -0.036083  -7.022388   -55.070509 -133.396720 -30.473225 73.750196   -47.692996 29.663981
460  -45.293524 14.066457   -30.301339 73.506457   -54.869499 -134.368800 -0.033361  -7.141086
     -30.304772 73.504761   -27.237142 39.779969   -0.176909  -24.715760  -54.916565 -132.897900
     -54.915457 -135.313870 -0.179093  -24.750600  -27.874675 41.460902   -30.287917 73.413847
     -0.036354  -7.146664   -54.831733 -133.559370 -30.286202 73.485467   -47.028381 27.318538
470  -45.246371 12.945397   -30.123303 73.175338   -54.437315 -134.362980 -0.034278  -7.297158
     -30.120033 73.164318   -27.133446 39.266499   -0.178881  -25.244102  -54.805524 -133.303670
     -54.646101 -135.527200 -0.181274  -25.280643  -27.826132 41.345335   -30.117598 73.139331
     -0.037679  -7.301406   -54.611909 -133.030130 -30.114123 73.141758   -47.019158 26.155683
480  -45.001948 9.568357    -29.950835 72.845134   -54.316073 -134.962980 -0.035411  -7.455359
     -29.951986 72.815796   -27.015085 38.829327   -0.181693  -25.783257  -54.605304 -133.461010
     -54.450919 -135.758130 -0.183006  -25.818560  -27.721985 40.931982   -29.930491 72.806907
     -0.039768  -7.461427   -54.501662 -133.068150 -29.937047 72.837133   -47.046861 25.780844
490  -44.486971 7.254063    -29.781268 72.522703   -54.008444 -135.436040 -0.035749  -7.605295
     -29.777639 72.520270   -26.906517 38.798712   -0.183127  -26.317594  -54.412300 -133.368440
     -54.231049 -135.946930 -0.184754  -26.345610  -27.597468 40.381677   -29.763680 72.421038
     -0.040220  -7.612922   -54.307946 -132.752270 -29.770454 72.492761   -47.263584 27.031790
500  -43.593079 6.044135    -29.611689 72.200506   -53.953185 -136.216900 -0.036719  -7.737238
     -29.617080 72.197021   -26.747639 38.680558   -0.184543  -26.819891  -54.289635 -133.057340
     -54.163122 -136.855410 -0.186629  -26.853295  -27.455432 39.717487   -29.601305 72.124051
     -0.040859  -7.738728   -54.070167 -132.972030 -29.598679 72.213820   -47.355621 26.906469
510  -42.964410 4.857510    -29.447122 71.879522   -53.941062 -136.893020 -0.037537  -7.866638
     -29.451288 71.913425   -26.643531 38.967658   -0.188034  -27.322948  -54.093055 -133.493230
     -53.984711 -137.562510 -0.190003  -27.359439  -27.294281 38.856884   -29.434613 71.783145
     -0.041937  -7.860386   -53.964312 -133.329850 -29.439192 71.836881   -47.690465 29.261653
520  -42.765311 2.375887    -29.291190 71.567464   -53.819838 -136.876810 -0.038778  -8.006530
     -29.298106 71.551075   -26.561823 38.978028   -0.190254  -27.849647  -54.022761 -133.838590
     -53.881830 -137.862100 -0.191571  -27.891436  -27.155406 37.927738   -29.281978 71.484603
     -0.043094  -8.012150   -53.772104 -133.497120 -29.280962 71.544245   -48.437791 27.549854
530  -42.686467 0.517961    -29.137568 71.212555   -53.689737 -136.961230 -0.039326  -8.166252
     -29.135851 71.231906   -26.507467 39.319082   -0.193566  -28.388093  -53.700216 -133.545990
     -53.767827 -137.881320 -0.194839  -28.431742  -27.034773 36.956221   -29.118239 71.144817
     -0.043144  -8.170754   -53.579371 -134.191300 -29.125492 71.203885   -49.371002 21.405978
540  -42.648689 -1.837427   -28.984762 70.885781   -53.589404 -136.864140 -0.039829  -8.318224
     -28.980933 70.878480   -26.453287 39.222295   -0.194514  -28.916420  -53.477535 -135.014140
     -53.687021 -137.788850 -0.196549  -28.960797  -26.952444 35.877981   -28.965654 70.819824
     -0.041894  -8.322025   -53.297432 -134.315050 -28.972013 70.849762   -49.236267 14.341742
550  -42.535179 -2.060957   -28.835570 70.568581   -53.454834 -137.186250 -0.040324  -8.444999
     -28.837343 70.576722   -26.343909 38.668075   -0.196439  -29.424191  -53.449948 -135.950820
     -53.466168 -138.283460 -0.198588  -29.467991  -26.799111 35.171389   -28.821461 70.506314
     -0.042025  -8.449700   -53.226787 -135.099160 -28.823818 70.545935   -47.951518 11.704252
560  -42.947169 -0.413845   -28.685128 70.261204   -53.337203 -137.145410 -0.040738  -8.575704
     -28.684317 70.235605   -26.238223 38.115066   -0.198411  -29.924492  -53.144228 -136.445290
     -53.385743 -137.881380 -0.200010  -29.972841  -26.671192 34.534015   -28.678568 70.168030
     -0.042978  -8.581858   -52.964648 -136.436800 -28.682003 70.266964   -46.812256 7.700802
570  -43.540070 0.547726    -28.547082 69.927778   -53.166814 -136.810680 -0.040618  -8.723256
     -28.551437 69.923931   -26.139093 37.382631   -0.200215  -30.455096  -53.068919 -137.116040
     -53.126666 -138.030270 -0.202223  -30.497965  -26.611564 34.218525   -28.529402 69.837677
     -0.044052  -8.735040   -52.882897 -136.472740 -28.537757 69.925689   -45.297968 7.073039
580  -44.036177 5.829152    -28.403248 69.594405   -52.834755 -137.122900 -0.042685  -8.885055
     -28.407168 69.594731   -26.019796 36.506017   -0.201448  -30.997448  -53.005602 -137.035000
     -53.015463 -138.235660 -0.204089  -31.033953  -26.502591 33.897775   -28.394352 69.543686
     -0.045139  -8.894739   -52.804113 -136.750820 -28.397204 69.608563   -43.810719 8.184015
590  -44.228498 13.795359   -28.269511 69.253578   -52.662910 -137.061020 -0.042635  -9.039629
     -28.266582 69.271663   -25.870862 35.530862   -0.202537  -31.530333  -52.917897 -138.377250
     -52.682688 -138.827440 -0.205032  -31.564808  -26.397632 33.861677   -28.254208 69.217790
     -0.045591  -9.045454   -52.696337 -137.969020 -28.260074 69.259721   -42.524401 11.370896
600  -43.748491 22.008124   -28.131756 68.961587   -52.438609 -138.934980 -0.042870  -9.166088
     -28.132072 68.954117   -25.650368 34.719277   -0.203437  -32.034010  -52.891327 -139.246010
     -52.551771 -140.371830 -0.207159  -32.063484  -26.235860 33.809278   -28.122779 68.889574
     -0.045834  -9.169473   -52.667433 -138.533110 -28.123423 68.919849   -41.311424 16.565424
610  -43.167659 29.478098   -27.998725 68.629765   -52.217343 -140.245900 -0.043232  -9.294257
     -27.997941 68.619652   -25.436012 33.929515   -0.206856  -32.538767  -52.721053 -140.440980
     -52.250713 -141.410750 -0.209254  -32.568901  -26.016276 33.966545   -27.985433 68.590012
     -0.046540  -9.300004   -52.570582 -139.566460 -27.989893 68.630528   -40.574260 23.220674
620  -42.472344 32.928907   -27.870011 68.290877   -52.028606 -142.429700 -0.044305  -9.446492
     -27.870218 68.302057   -25.242152 33.323901   -0.208077  -33.070539  -52.798715 -140.668970
     -52.162473 -143.220950 -0.211975  -33.101222  -25.846262 33.895409   -27.859065 68.236458
     -0.047538  -9.454621   -52.606656 -140.235510 -27.860278 68.298307   -40.214035 26.690049
630  -42.017693 34.465165   -27.741312 67.974013   -51.870516 -144.481610 -0.045260  -9.607150
     -27.737995 67.961112   -25.076002 33.095454   -0.211266  -33.600261  -52.643527 -141.235090
     -51.957917 -145.072680 -0.214071  -33.639187  -25.654890 33.706486   -27.727120 67.923807
     -0.048208  -9.610375   -52.440567 -140.797620 -27.730365 67.952188   -40.193975 30.081443
640  -41.516190 31.102740   -27.617032 67.632979   -51.864255 -146.034720 -0.045458  -9.753135
     -27.614026 67.634452   -24.919550 32.772794   -0.212734  -34.126787  -52.601632 -141.710470
     -51.912624 -146.593170 -0.216122  -34.167503  -25.460926 33.366471   -27.603696 67.588378
     -0.047772  -9.754841   -52.512075 -141.359180 -27.607899 67.652675   -40.512947 32.883253
650  -41.010944 26.745411   -27.491054 67.335426   -51.830562 -147.543510 -0.044718  -9.881061
     -27.493205 67.329251   -24.744573 32.623433   -0.213523  -34.620516  -52.531906 -141.826640
     -51.866023 -148.295460 -0.217397  -34.668005  -25.228262 32.729868   -27.480279 67.277028
     -0.047737  -9.885536   -52.384488 -141.345790 -27.484983 67.311960   -41.008565 34.367569
660  -40.674504 21.733260   -27.372295 67.004114   -51.907697 -149.267520 -0.045699  -10.006558
     -27.372171 67.006947   -24.603527 32.693064   -0.216614  -35.127366  -52.549782 -143.040710
     -51.918081 -149.801980 -0.218578  -35.170715  -25.042667 31.992395   -27.360318 66.970672
     -0.048315  -10.008186  -52.375823 -141.850560 -27.364664 67.002429   -41.810105 35.349780
670  -40.711152 14.377479   -27.254093 66.684622   -51.872286 -149.264650 -0.046539  -10.154559
     -27.255018 66.694214   -24.496593 32.908413   -0.218570  -35.651589  -52.467478 -143.217760
     -51.922671 -151.063170 -0.222524  -35.691595  -24.895773 31.506591   -27.239464 66.647943
     -0.049582  -10.158363  -52.374739 -142.683070 -27.239591 66.675876   -43.083747 33.414221
680  -40.586735 6.471708    -27.140186 66.375743   -51.922253 -150.078150 -0.046820  -10.305638
     -27.141456 66.349174   -24.411951 32.940109   -0.220428  -36.189985  -52.498673 -143.218580
     -51.932213 -150.820450 -0.224863  -36.220450  -24.762596 30.714446   -27.124061 66.285926
     -0.049506  -10.307196  -52.304812 -142.616380 -27.127191 66.338700   -44.640724 26.956377
690  -40.413334 -1.041145   -27.025566 66.067655   -52.043327 -150.146700 -0.046685  -10.451740
     -27.025023 66.046836   -24.311818 32.825900   -0.221156  -36.712351  -52.462828 -143.645870
     -52.063103 -151.670000 -0.225642  -36.743059  -24.632357 30.104949   -27.006541 65.958202
     -0.049331  -10.455583  -52.180689 -142.602180 -27.011373 66.004864   -45.803298 17.431959
700  -40.347079 -6.760562   -26.911885 65.769453   -52.010073 -150.430940 -0.046726  -10.574788
     -26.910794 65.738311   -24.197301 32.662932   -0.223231  -37.220799  -52.276130 -143.873180
     -51.995080 -151.552900 -0.227296  -37.243468  -24.508147 29.446050   -26.898459 65.686845
     -0.049822  -10.574214  -52.126040 -143.202540 -26.898914 65.703881   -46.434537 7.504517
710  -40.257646 -9.609614   -26.801000 65.432890   -51.953271 -150.680430 -0.047490  -10.699990
     -26.798953 65.445901   -24.085603 32.518369   -0.225626  -37.720162  -52.191678 -144.139320
     -51.961676 -150.956700 -0.229430  -37.739400  -24.369776 29.091645   -26.784676 65.360814
     -0.050228  -10.698290  -51.982184 -144.061630 -26.791057 65.406244   -46.517048 -0.639480
720  -40.067137 -12.441060  -26.685599 65.118369   -51.888039 -150.289130 -0.048964  -10.850931
     -26.689447 65.113193   -24.013971 32.256894   -0.227529  -38.254814  -52.040719 -143.951280
     -51.895477 -151.375990 -0.231890  -38.267659  -24.296275 28.801718   -26.672406 65.023126
     -0.051591  -10.846749  -51.845697 -143.720180 -26.675197 65.061169   -46.529179 -7.200918
730  -39.950816 -13.393690  -26.581733 64.800356   -51.797638 -150.486180 -0.049943  -11.004551
     -26.583552 64.769161   -23.949480 31.865778   -0.229809  -38.792538  -51.988725 -144.614710
     -51.820661 -151.422730 -0.232899  -38.803138  -24.225862 28.651571   -26.563924 64.713829
     -0.051179  -11.004918  -51.816734 -143.551450 -26.571537 64.758539   -46.476038 -9.170859
740  -39.658596 -13.903157  -26.475316 64.467469   -51.703657 -151.130160 -0.049924  -11.151359
     -26.472820 64.462122   -23.883092 31.435806   -0.231217  -39.313247  -51.883077 -145.102560
     -51.717833 -151.771130 -0.233573  -39.336463  -24.172683 28.483435   -26.462438 64.362032
     -0.051654  -11.153787  -51.719991 -144.227820 -26.463831 64.425607   -46.322882 -8.844126
750  -39.249802 -11.897684  -26.368940 64.147004   -51.657237 -152.309950 -0.050717  -11.280416
     -26.369300 64.133978   -23.756540 30.826661   -0.231986  -39.824318  -51.851117 -145.635380
     -51.658038 -152.842650 -0.234999  -39.838652  -24.063154 28.406496   -26.357264 64.081578
     -0.052552  -11.276717  -51.733771 -145.024750 -26.361690 64.098201   -46.815488 -3.141419
760  -38.907471 -10.483599  -26.267510 63.842025   -51.655949 -153.153070 -0.051185  -11.399332
     -26.269784 63.833247   -23.654487 30.266468   -0.234084  -40.320042  -51.720596 -146.089910
     -51.662241 -154.081230 -0.237473  -40.337441  -23.981935 28.089185   -26.254624 63.740411
     -0.053767  -11.402803  -51.675877 -145.958670 -26.259245 63.804319   -47.590986 1.058078
770  -38.532222 -11.502913  -26.167422 63.517181   -51.611506 -154.264050 -0.051057  -11.545788
     -26.168158 63.515276   -23.590584 29.938084   -0.236111  -40.849324  -51.692129 -146.415330
     -51.607907 -154.997880 -0.239765  -40.867388  -23.913321 27.886634   -26.151635 63.461629
     -0.054593  -11.546278  -51.567397 -145.834610 -26.158857 63.450517   -49.360894 6.331274
780  -38.125848 -13.265255  -26.066382 63.185427   -51.668466 -154.871790 -0.051651  -11.704030
     -26.069093 63.176188   -23.554018 29.407198   -0.237517  -41.381694  -51.719889 -147.287550
     -51.660886 -155.467220 -0.241072  -41.392395  -23.860986 27.410922   -26.053202 63.087305
     -0.055198  -11.703296  -51.571195 -146.192040 -26.056804 63.136621   -51.849556 2.817658
790  -37.620216 -16.780660  -25.968496 62.857567   -51.704561 -155.363370 -0.050905  -11.849899
     -25.967751 62.840296   -23.543422 29.003005   -0.237447  -41.905388  -51.648501 -147.274850
     -51.705239 -156.443300 -0.242604  -41.912170  -23.814641 26.843336   -25.954581 62.743470
     -0.055710  -11.853226  -51.487744 -146.781520 -25.961465 62.811419   -54.943957 -9.572281
800  -37.244194 -20.204301  -25.869343 62.540301   -51.856002 -155.623720 -0.051185  -11.974721
     -25.871812 62.528809   -23.511982 28.499345   -0.239328  -42.405361  -51.683764 -147.432230
     -51.924053 -156.192040 -0.244578  -42.416040  -23.732367 26.223928   -25.855984 62.441040
     -0.055925  -11.971573  -51.537528 -146.432700 -25.861656 62.479855   -56.664018 -44.201749
810  -37.084591 -23.285362  -25.783769 62.238621   -51.873339 -155.988330 -0.051495  -12.096566
     -25.782619 62.238932   -23.495965 28.008559   -0.240901  -42.909600  -51.512675 -147.407010
     -51.789995 -156.575160 -0.245557  -42.916585  -23.675920 25.343771   -25.762996 62.163391
     -0.056812  -12.095035  -51.475596 -146.993100 -25.767979 62.182207   -53.930148 -74.063128
820  -36.951132 -27.909420  -25.685866 61.927221   -51.864443 -155.358440 -0.052700  -12.242450
     -25.688180 61.928480   -23.502652 27.618939   -0.243712  -43.434945  -51.458506 -147.561350
     -51.901985 -155.787760 -0.247568  -43.441441  -23.628612 24.614454   -25.671863 61.846130
     -0.057876  -12.245278  -51.375437 -146.679780 -25.673018 61.850598   -50.075544 -83.110740
830  -36.950730 -31.442171  -25.595450 61.605102   -51.816565 -154.650970 -0.053642  -12.396301
     -25.597635 61.606554   -23.518129 27.235202   -0.245812  -43.979442  -51.450041 -147.332160
     -51.836687 -155.415230 -0.249540  -43.975439  -23.610250 23.722134   -25.576171 61.489276
     -0.058190  -12.389103  -51.238050 -146.837830 -25.580122 61.515568   -47.476823 -81.221067
840  -37.040865 -34.392219  -25.504400 61.276120   -51.778241 -155.137360 -0.053320  -12.538579
     -25.503166 61.271667   -23.547118 26.789762   -0.247638  -44.499220  -51.295484 -147.367600
     -51.796689 -155.157490 -0.249921  -44.507035  -23.577614 22.916952   -25.485778 61.155230
     -0.058346  -12.535166  -51.200542 -146.360900 -25.490613 61.163393   -45.798586 -74.195021
850  -37.489203 -35.206050  -25.414742 60.947168   -51.651972 -154.856950 -0.054199  -12.655826
     -25.418363 60.939535   -23.555471 26.399252   -0.248588  -45.003535  -51.222173 -147.552980
     -51.617499 -154.739960 -0.251243  -45.003467  -23.511727 22.051960   -25.397915 60.871193
     -0.057977  -12.652711  -51.082117 -146.590630 -25.404966 60.875934   -44.629892 -66.893486
860  -37.969139 -33.880654  -25.326794 60.648024   -51.506603 -154.918410 -0.055608  -12.769485
     -25.331746 60.634240   -23.544577 26.074749   -0.251000  -45.512260  -51.158139 -148.220110
     -51.504879 -155.672560 -0.252721  -45.507352  -23.478446 21.084971   -25.310657 60.538740
     -0.058689  -12.770923  -51.060895 -147.670440 -25.317419 60.535106   -44.232707 -56.024740
870  -38.735273 -31.152691  -25.241608 60.299837   -51.296127 -155.449020 -0.057030  -12.912829
     -25.246520 60.297842   -23.547779 25.662938   -0.252904  -46.033461  -51.033983 -148.802300
     -51.276642 -155.432750 -0.255281  -46.033661  -23.416280 20.557461   -25.226966 60.235136
     -0.060100  -12.913545  -50.953007 -148.134800 -25.233669 60.221591   -44.166058 -45.720622
880  -39.212839 -26.215026  -25.153304 59.976601   -51.082554 -155.871580 -0.057348  -13.068708
     -25.155955 59.967787   -23.541407 25.429914   -0.254562  -46.565935  -50.978910 -149.377820
     -51.122311 -155.969620 -0.255953  -46.566458  -23.366443 20.065347   -25.145709 59.909766
     -0.059904  -13.066012  -50.821714 -148.244210 -25.149786 59.915439   -43.963204 -34.101254
890  -39.630240 -20.256606  -25.074144 59.658609   -50.958776 -156.950860 -0.056852  -13.209352
     -25.074017 59.644869   -23.529980 25.153688   -0.255435  -47.095185  -50.878236 -150.016350
     -50.914396 -156.640720 -0.256723  -47.094024  -23.338908 19.375503   -25.056703 59.568092
     -0.060530  -13.215237  -50.756569 -148.846060 -25.065560 59.576709   -44.024134 -22.788790
900  -39.740489 -13.335219  -24.991267 59.328135   -50.832732 -158.334940 -0.057790  -13.330889
     -24.995986 59.339713   -23.501952 24.981295   -0.256571  -47.601208  -50.798276 -150.834430
     -50.841531 -158.366840 -0.257966  -47.597705  -23.280193 18.871817   -24.978298 59.268455
     -0.060894  -13.331705  -50.687751 -149.711410 -24.983649 59.262967   -44.068021 -11.191822
910  -39.582148 -8.528233   -24.909996 59.032167   -50.802345 -159.141170 -0.058653  -13.456688
     -24.911805 59.028036   -23.456490 24.626350   -0.257645  -48.104192  -50.661283 -151.376030
     -50.713505 -159.361390 -0.260986  -48.095864  -23.224362 18.298827   -24.895180 58.947162
     -0.061559  -13.461826  -50.529223 -150.989120 -24.899760 58.951596   -44.138082 -0.854945
920  -39.191346 -5.118879   -24.831259 58.718812   -50.718178 -159.649790 -0.059848  -13.615639
     -24.829841 58.708769   -23.433031 24.303383   -0.259487  -48.633994  -50.544693 -151.919600
     -50.737192 -160.640010 -0.262760  -48.629725  -23.169786 17.734322   -24.818730 58.631090
     -0.062938  -13.606197  -50.527411 -151.303230 -24.818552 58.616250   -44.361969 4.726477
930  -38.795732 -4.177048   -24.752648 58.395530   -50.741799 -160.598510 -0.060542  -13.770329
     -24.750369 58.391848   -23.418867 23.943532   -0.259926  -49.174250  -50.606766 -152.690620
     -50.738422 -161.029420 -0.264187  -49.167061  -23.154548 17.180706   -24.737486 58.304267
     -0.063219  -13.764943  -50.508240 -152.122860 -24.740749 58.293973   -44.457859 6.309385
940  -38.633386 -4.680721   -24.675524 58.037456   -50.853218 -161.168550 -0.060887  -13.917437
     -24.674094 58.033943   -23.382065 23.750753   -0.261181  -49.703442  -50.548723 -153.288740
     -50.820458 -161.421820 -0.265908  -49.700167  -23.099115 16.448390   -24.663077 57.966893
     -0.062248  -13.910296  -50.470979 -153.197670 -24.666317 57.960807   -44.674128 5.430779
950  -38.597075 -5.508182   -24.598478 57.719822   -50.814918 -161.379700 -0.060563  -14.047834
     -24.598237 57.721132   -23.313259 23.394270   -0.263281  -50.204319  -50.434392 -154.478180
     -50.834754 -161.957060 -0.267114  -50.203290  -23.055174 16.127807   -24.582945 57.647651
     -0.063095  -14.030504  -50.386270 -153.963830 -24.591191 57.632681   -44.897232 3.301039
960  -38.795146 -6.766643   -24.526230 57.424215   -50.861957 -161.263910 -0.061015  -14.168816
     -24.522036 57.414824   -23.244069 23.159848   -0.264823  -50.710238  -50.396835 -155.552060
     -50.870686 -161.689960 -0.269221  -50.705727  -22.968835 15.678151   -24.509434 57.360847
     -0.063073  -14.153302  -50.291105 -154.835080 -24.516409 57.336593   -44.716383 -0.465921
970  -39.238457 -7.485608   -24.450334 57.090874   -50.836832 -161.219360 -0.062330  -14.317470
     -24.449792 57.075077   -23.208191 22.809845   -0.267403  -51.238755  -50.302097 -155.820870
     -50.810951 -161.825540 -0.270418  -51.230532  -22.908292 15.295518   -24.436866 57.032433
     -0.064749  -14.300422  -50.275600 -155.306430 -24.442501 56.999315   -44.064871 -4.139797
980  -39.924370 -7.820642   -24.376962 56.772052   -50.753433 -161.275110 -0.062190  -14.468660
     -24.376075 56.764687   -23.142090 22.379144   -0.268865  -51.772198  -50.280065 -156.730480
     -50.700916 -161.577540 -0.272427  -51.765544  -22.833392 14.992333   -24.363162 56.727176
     -0.065516  -14.456972  -50.227075 -155.879180 -24.366164 56.668410   -43.159162 -5.777047
990  -40.583444 -5.506162   -24.303704 56.428503   -50.619690 -160.909500 -0.061753  -14.613273
     -24.301362 56.425218   -23.110795 22.042426   -0.271276  -52.299231  -50.256186 -157.206000
     -50.641893 -161.319860 -0.273472  -52.289622  -22.786841 14.729564   -24.292158 56.378322
     -0.065154  -14.603752  -50.119621 -156.782650 -24.298209 56.361171   -42.243196 -5.840822
1000 -41.201642 -1.938310   -24.232554 56.142540   -50.450929 -161.426630 -0.062469  -14.732606
     -24.226305 56.114015   -23.054833 21.517775   -0.272203  -52.805233  -50.201123 -158.197950
     -50.507572 -162.433680 -0.274567  -52.792231  -22.726796 14.427241   -24.216808 56.067120
     -0.066164  -14.724022  -50.186211 -157.929480 -24.226004 56.045471   -41.415828 -3.119030
1010 -41.792817 4.171338    -24.163570 55.808348   -50.318295 -162.775500 -0.063115  -14.850071
     -24.164213 55.816345   -23.015191 21.161979   -0.274621  -53.308748  -50.281547 -159.161570
     -50.373866 -163.268210 -0.276519  -53.292132  -22.645434 14.117202   -24.151752 55.759177
     -0.066578  -14.846320  -50.173386 -158.524280 -24.158468 55.728169   -40.678235 1.667778
1020 -42.112924 8.290879    -24.092915 55.492370   -50.314452 -163.844940 -0.065339  -14.996891
     -24.092801 55.488839   -22.999627 20.579236   -0.276427  -53.836255  -50.284561 -159.914670
     -50.314794 -164.223270 -0.278326  -53.822144  -22.604663 13.793037   -24.082327 55.442462
     -0.068521  -14.993594  -50.194192 -159.205180 -24.085314 55.412751   -40.065877 5.195558
1030 -42.033339 11.232639   -24.026787 55.149666   -50.310332 -165.427630 -0.066768  -15.150491
     -24.026774 55.151139   -22.983218 19.953827   -0.278225  -54.367574  -50.388370 -160.740610
     -50.288643 -165.798560 -0.279850  -54.362673  -22.570492 13.280435   -24.016603 55.115651
     -0.068582  -15.146694  -50.303285 -160.075970 -24.018325 55.081248   -39.769588 7.881572
1040 -41.894267 11.801698   -23.959567 54.819527   -50.313034 -166.862020 -0.066611  -15.301238
     -23.958693 54.807197   -22.995009 19.300783   -0.279873  -54.904824  -50.514646 -161.417760
     -50.327933 -166.860390 -0.280546  -54.900315  -22.550548 12.896132   -23.946252 54.789930
     -0.069073  -15.301528  -50.404993 -160.755600 -23.949905 54.745349   -39.868803 10.838470
1050 -41.939679 9.465899    -23.894862 54.532134   -50.316215 -168.275300 -0.066666  -15.423550
     -23.892898 54.507154   -22.980699 18.727890   -0.280400  -55.411286  -50.567797 -161.875020
     -50.347793 -168.083620 -0.281462  -55.403808  -22.533551 12.625594   -23.879681 54.467288
     -0.069360  -15.422389  -50.413057 -161.421060 -23.884890 54.457394   -40.268960 11.652949
1060 -41.872697 4.870588    -23.831949 54.208431   -50.483908 -168.930800 -0.067798  -15.539769
     -23.830371 54.205629   -22.986052 18.139755   -0.281379  -55.914670  -50.745540 -162.604600
     -50.462225 -169.414980 -0.282449  -55.905907  -22.502901 12.303576   -23.814433 54.146721
     -0.069417  -15.545972  -50.582970 -161.266420 -23.818097 54.147223   -41.086241 10.356789
1070 -41.650447 -3.634110   -23.764730 53.904589   -50.574686 -169.275310 -0.068299  -15.691511
     -23.765091 53.884238   -23.005970 17.465201   -0.283561  -56.449407  -50.831602 -161.761900
     -50.551274 -168.996050 -0.285275  -56.439171  -22.516407 12.110914   -23.752546 53.836841
     -0.070307  -15.693709  -50.726859 -160.560730 -23.755863 53.791586   -42.210928 4.167126
1080 -41.197388 -13.434621  -23.701045 53.541354   -50.705840 -168.956370 -0.068265  -15.845509
     -23.701624 53.542940   -23.016249 16.696751   -0.284429  -56.987180  -50.950176 -160.791410
     -50.674941 -169.287750 -0.286593  -56.975785  -22.537411 11.820685   -23.688533 53.489041
     -0.070504  -15.848798  -50.815172 -159.719450 -23.692153 53.458075   -43.103155 -6.384184
1090 -40.860016 -22.073859  -23.638213 53.229305   -50.740895 -168.538820 -0.068224  -15.997692
     -23.637922 53.217827   -23.007480 16.027251   -0.285203  -57.519356  -51.052812 -160.267990
     -50.776646 -169.147910 -0.287202  -57.508415  -22.522971 11.583963   -23.626161 53.170765
     -0.070383  -15.995048  -50.927823 -159.111550 -23.631290 53.144453   -43.502162 -19.971701
1100 -40.708843 -29.886060  -23.577854 52.927599   -50.712815 -168.292770 -0.067760  -16.120381
     -23.577669 52.931797   -22.966845 15.511938   -0.286665  -58.028539  -51.083566 -160.150810
     -50.751837 -169.459970 -0.289377  -58.012140  -22.481074 11.288937   -23.560773 52.854728
     -0.070398  -16.113002  -50.943340 -158.647120 -23.568313 52.821298   -43.143505 -33.635575
1110 -40.641893 -37.587185  -23.516886 52.620082   -50.595511 -167.752830 -0.068956  -16.239132
     -23.514526 52.600949   -22.907243 15.039967   -0.288196  -58.525353  -51.044448 -160.321070
     -50.678606 -168.318880 -0.289882  -58.512078  -22.431629 11.070282   -23.500281 52.541086
     -0.071558  -16.235344  -50.908154 -158.558810 -23.506400 52.509665   -42.208617 -41.400834
1120 -40.408158 -42.817870  -23.457402 52.273899   -50.523637 -167.766150 -0.070330  -16.384805
     -23.455591 52.289989   -22.832003 14.643722   -0.290510  -59.059892  -51.061063 -160.136600
     -50.601316 -168.396350 -0.292605  -59.044413  -22.391260 10.760993   -23.440812 52.214907
     -0.072352  -16.379453  -50.933002 -158.942170 -23.447549 52.183489   -41.299721 -46.118664
1130 -40.474099 -46.626380  -23.398070 51.943241   -50.387692 -168.116560 -0.070349  -16.536386
     -23.400022 51.949265   -22.765274 14.351620   -0.292416  -59.592154  -51.039741 -160.165330
     -50.478085 -168.420050 -0.293373  -59.583187  -22.325387 10.314525   -23.381787 51.903238
     -0.073484  -16.529517  -50.875056 -158.511130 -23.386881 51.855531   -40.569264 -46.719816
1140 -40.633121 -48.451941  -23.340878 51.635067   -50.251502 -168.583740 -0.071663  -16.681949
     -23.339489 51.633096   -22.699823 14.049062   -0.294554  -60.123601  -50.977785 -159.842050
     -50.340662 -168.538700 -0.294658  -60.111438  -22.254215 9.743128    -23.325671 51.568131
     -0.073888  -16.674848  -50.876250 -159.134030 -23.329607 51.533089   -39.969706 -45.809146
1150 -41.029816 -49.049487  -23.284104 51.316322   -50.105956 -169.425220 -0.071111  -16.793850
     -23.285170 51.314258   -22.622696 13.925451   -0.295776  -60.630330  -50.843060 -160.111660
     -50.161151 -169.406650 -0.295364  -60.620712  -22.157585 9.233231    -23.272148 51.265707
     -0.074199  -16.794159  -50.821375 -159.653120 -23.274307 51.211406   -39.876676 -43.875868
1160 -41.139531 -48.407821  -23.226503 51.020427   -50.022989 -170.440110 -0.073041  -16.922229
     -23.227211 51.009803   -22.566500 13.882550   -0.297193  -61.129842  -50.800462 -160.409840
     -50.011401 -170.624420 -0.298094  -61.121327  -22.087945 8.608185    -23.215942 50.941819
     -0.075412  -16.912780  -50.745944 -160.035680 -23.218018 50.904766   -39.962544 -42.341717
1170 -40.816862 -46.446554  -23.174387 50.697172   -50.021884 -171.113350 -0.074156  -17.067476
     -23.173402 50.686891   -22.551750 13.826785   -0.299191  -61.658283  -50.759120 -160.907180
     -50.122794 -171.340170 -0.300392  -61.651068  -22.019402 8.096933    -23.161045 50.632615
     -0.076456  -17.055910  -50.575449 -160.022440 -23.162570 50.586136   -40.223472 -40.917500
1180 -40.279802 -44.671698  -23.119589 50.360138   -50.207130 -172.387670 -0.074585  -17.223922
     -23.118796 50.343074   -22.526241 13.512503   -0.300958  -62.202698  -50.753592 -161.357270
     -50.182382 -172.801550 -0.301732  -62.186991  -21.983517 7.352083    -23.107482 50.273029
     -0.077309  -17.202953  -50.666142 -160.395880 -23.110108 50.233696   -40.532026 -40.441701
1190 -39.702238 -43.081539  -23.067814 50.026477   -50.248770 -173.500610 -0.074620  -17.372267
     -23.065179 50.023634   -22.505726 13.152203   -0.302900  -62.728705  -50.703783 -161.673610
     -50.348358 -173.745320 -0.302954  -62.717033  -21.951943 6.890886    -23.052532 49.957810
     -0.077695  -17.341776  -50.596945 -160.955480 -23.055695 49.897869   -40.981271 -42.251926
1200 -39.065906 -43.841895  -23.012047 49.711000   -50.392022 -174.160700 -0.075779  -17.488960
     -23.010252 49.697976   -22.502860 12.672581   -0.303324  -63.239930  -50.701822 -161.797620
     -50.437800 -174.758800 -0.304594  -63.222666  -21.918651 6.495177    -22.998028 49.652173
     -0.077414  -17.470568  -50.638611 -161.224830 -23.003036 49.606399   -41.703527 -46.523589
1210 -38.425106 -45.506247  -22.959834 49.407991   -50.493360 -174.742410 -0.076391  -17.611359
     -22.960910 49.400052   -22.495893 12.067777   -0.305570  -63.743825  -50.618587 -162.127000
     -50.586182 -175.178370 -0.306528  -63.728316  -21.912633 6.354955    -22.948121 49.335022
     -0.078483  -17.592231  -50.562125 -161.818680 -22.952111 49.295453   -42.201786 -53.829317
1220 -37.789162 -47.642950  -22.909047 49.069048   -50.676661 -174.584510 -0.077840  -17.752827
     -22.908194 49.069188   -22.510316 11.438431   -0.307892  -64.276567  -50.683478 -161.872750
     -50.790054 -175.172560 -0.308798  -64.260702  -21.914097 6.098463    -22.894257 48.990469
     -0.079299  -17.738329  -50.593650 -161.514340 -22.899599 48.961949   -42.202351 -62.826432
1230 -37.256380 -50.176490  -22.860491 48.738571   -50.781454 -174.013270 -0.078098  -17.903835
     -22.859515 48.750092   -22.544739 10.653898   -0.309715  -64.814718  -50.630480 -162.042420
     -50.867409 -174.417050 -0.310579  -64.793338  -21.933857 5.988634    -22.845565 48.676304
     -0.080254  -17.890995  -50.595127 -161.074880 -22.849629 48.643771   -41.699901 -70.032508
1240 -36.961476 -51.445123  -22.810474 48.418195   -50.852464 -172.952280 -0.079054  -18.041564
     -22.809963 48.403516   -22.551514 9.801943    -0.310341  -65.347739  -50.741539 -161.590010
     -50.881794 -173.791870 -0.311377  -65.322199  -21.971915 5.853461    -22.796003 48.347401
     -0.079976  -18.040836  -50.608332 -160.665010 -22.798905 48.296221   -41.124612 -73.403506
1250 -36.767080 -53.420818  -22.762978 48.118032   -50.713336 -172.862270 -0.079166  -18.160392
     -22.764103 48.113025   -22.557551 9.037755    -0.311736  -65.855809  -50.761915 -161.422500
     -50.812722 -173.934680 -0.313160  -65.837230  -21.985153 5.683987    -22.743939 48.025140
     -0.080975  -18.160079  -50.629465 -160.922210 -22.746453 47.988054   -40.589656 -75.574053
1260 -36.834116 -54.440024  -22.710004 47.820594   -50.621846 -172.193970 -0.079418  -18.278319
     -22.709813 47.818086   -22.547054 8.282778    -0.313078  -66.359872  -50.658683 -160.779660
     -50.654314 -172.768830 -0.314153  -66.339497  -21.989712 5.465150    -22.694385 47.703965
     -0.082101  -18.277171  -50.438638 -160.337780 -22.702709 47.681759   -40.355519 -76.160620
1270 -37.062091 -54.461595  -22.664717 47.477802   -50.531928 -172.007450 -0.080428  -18.422177
     -22.663388 47.478143   -22.550732 7.478146    -0.314492  -66.895707  -50.665561 -161.079210
     -50.575190 -172.573730 -0.315465  -66.876616  -21.987245 5.130120    -22.649155 47.413731
     -0.083325  -18.423793  -50.555471 -160.545890 -22.650721 47.366855   -40.005212 -73.180685
1280 -37.311151 -53.188968  -22.617323 47.150387   -50.383638 -171.959920 -0.081000  -18.578544
     -22.618598 47.152729   -22.539346 6.864966    -0.315702  -67.433557  -50.651096 -160.826020
     -50.382779 -173.085370 -0.317237  -67.417034  -21.993373 4.744706    -22.599656 47.046980
     -0.084405  -18.569199  -50.494031 -160.689390 -22.605011 47.035717   -39.985022 -68.766309
1290 -37.634563 -51.740984  -22.570382 46.833626   -50.223739 -173.794950 -0.081703  -18.716850
     -22.569551 46.815208   -22.524045 6.315313    -0.316159  -67.972400  -50.635265 -161.479750
     -50.249948 -173.959880 -0.317901  -67.952665  -21.965082 4.352359    -22.554374 46.725633
     -0.085128  -18.716119  -50.562109 -161.048070 -22.558401 46.699718   -40.154932 -64.988230
1300 -38.010760 -50.774986  -22.524547 46.517606   -50.094696 -174.347090 -0.082588  -18.835853
     -22.523338 46.498590   -22.499880 5.904175    -0.317902  -68.482073  -50.574058 -162.216710
     -50.066766 -174.623420 -0.318873  -68.457369  -21.943943 4.010225    -22.510474 46.421874
     -0.085425  -18.833067  -50.484658 -161.327470 -22.513090 46.371126   -40.567389 -61.911576
1310 -38.239066 -48.830952  -22.481628 46.184975   -49.966657 -175.655340 -0.083379  -18.954175
     -22.478680 46.169547   -22.467831 5.592079    -0.319179  -68.987051  -50.639364 -162.156920
     -49.955702 -175.852140 -0.320326  -68.967569  -21.898836 3.609272    -22.460908 46.085778
     -0.085913  -18.953940  -50.503686 -161.697030 -22.470451 46.038961   -41.035072 -59.857406
1320 -38.234058 -48.087451  -22.435276 45.847530   -49.968048 -175.811080 -0.084789  -19.102116
     -22.434108 45.829208   -22.447481 5.408268    -0.321221  -69.531225  -50.558835 -162.827020
     -49.940681 -176.856620 -0.323052  -69.512055  -21.891227 3.240363    -22.420977 45.745602
     -0.086848  -19.099834  -50.518941 -161.981530 -22.424808 45.708043   -41.235397 -58.584434
1330 -37.867884 -48.867733  -22.394701 45.540983   -49.986503 -177.424160 -0.085642  -19.253796
     -22.392801 45.514327   -22.432926 5.176002    -0.321919  -70.075113  -50.689713 -162.132020
     -50.117342 -178.090120 -0.323887  -70.057795  -21.867059 2.815721    -22.379977 45.405021
     -0.087140  -19.248184  -50.543454 -161.212150 -22.382038 45.382430   -41.491736 -60.451062
1340 -37.566690 -50.604571  -22.351551 45.197773   -50.216532 -177.409480 -0.085467  -19.403544
     -22.351972 45.173588   -22.411307 4.947183    -0.322818  -70.608236  -50.776750 -162.544420
     -50.245497 -178.704810 -0.324643  -70.592380  -21.853639 2.261112    -22.338584 45.085087
     -0.086662  -19.398180  -50.614390 -161.915370 -22.339068 45.055870   -41.439708 -65.177952
1350 -37.256311 -53.091353  -22.311590 44.898420   -50.291668 -177.470950 -0.084294  -19.526853
     -22.313592 44.887722   -22.387070 4.857731    -0.323195  -71.117440  -50.789267 -162.625670
     -50.258875 -178.937170 -0.325317  -71.104002  -21.802365 1.660638    -22.296521 44.789426
     -0.086469  -19.516395  -50.668678 -161.565580 -22.297291 44.744799   -41.177269 -71.119747
1360 -36.843856 -56.244350  -22.269641 44.605292   -50.311103 -177.604920 -0.085317  -19.646971
     -22.270382 44.581959   -22.364115 4.738029    -0.324620  -71.626250  -50.627969 -162.409540
     -50.403019 -179.003100 -0.327240  -71.613621  -21.776857 1.106704    -22.253726 44.467247
     -0.087192  -19.639094  -50.631188 -161.443650 -22.255760 44.424982   -40.612847 -77.255124
1370 -36.421068 -58.693351  -22.228081 44.261683   -50.481745 -178.117420 -0.085343  -19.796785
     -22.230386 44.275205   -22.336257 4.697865    -0.326174  -72.164746  -50.639315 -161.863490
     -50.510283 -179.224190 -0.328203  -72.150004  -21.741992 0.318870    -22.212858 44.132948
     -0.088441  -19.785426  -50.410546 -161.411830 -22.214028 44.107130   -39.854076 -80.971829
1380 -36.131044 -62.300345  -22.187006 43.915007   -50.663324 -177.262570 -0.086043  -19.950317
     -22.188542 43.935530   -22.327565 4.538125    -0.327170  -72.698635  -50.596492 -161.469500
     -50.740457 -178.334010 -0.328687  -72.684538  -21.729248 -0.319210   -22.173174 43.820588
     -0.089104  -19.944510  -50.466496 -161.193100 -22.173440 43.777398   -38.997858 -82.234358
1390 -35.828235 -64.085817  -22.147163 43.609589   -50.846917 -176.697960 -0.085826  -20.088543
     -22.148389 43.594310   -22.339115 4.362554    -0.328412  -73.236167  -50.391093 -161.980630
     -50.879518 -178.004280 -0.329992  -73.219552  -21.709312 -1.079885   -22.129879 43.500546
     -0.088995  -20.084788  -50.295209 -161.449390 -22.133966 43.444804   -38.471365 -82.274594
1400 -35.907134 -66.203245  -22.109112 43.291113   -50.814332 -176.433050 -0.085333  -20.203339
     -22.108019 43.288404   -22.338494 4.268087    -0.329432  -73.743797  -50.390997 -161.834610
     -50.758817 -177.036100 -0.330991  -73.732485  -21.672673 -1.578895   -22.092245 43.158751
     -0.088855  -20.197231  -50.305739 -161.547630 -22.094047 43.131210   -37.980385 -82.560779
1410 -35.967046 -67.237326  -22.072035 42.958141   -50.736942 -176.199910 -0.086774  -20.318673
     -22.068432 42.970743   -22.334887 4.043215    -0.331669  -74.253262  -50.298039 -161.995250
     -50.705629 -176.786670 -0.332869  -74.241501  -21.667955 -2.130474   -22.051247 42.856980
     -0.090578  -20.308381  -50.249685 -161.422060 -22.058047 42.820582   -37.891785 -81.040851
1420 -36.073518 -68.116951  -22.039413 42.629373   -50.678884 -175.645370 -0.088064  -20.453907
     -22.036430 42.624618   -22.354186 3.687968    -0.333461  -74.793270  -50.202124 -161.952350
     -50.700334 -176.741370 -0.335207  -74.783620  -21.667993 -2.654392   -22.018040 42.531343
     -0.090908  -20.449483  -50.116590 -161.003800 -22.022516 42.491861   -37.739703 -79.926894
1430 -36.265001 -67.828857  -21.999609 42.289157   -50.627814 -175.880180 -0.088799  -20.605873
     -21.998485 42.305294   -22.358184 3.021829    -0.333646  -75.340139  -50.250660 -161.969730
     -50.628350 -177.178510 -0.337114  -75.331210  -21.654391 -2.987370   -21.978733 42.191689
     -0.092164  -20.600524  -50.219855 -161.214790 -21.983908 42.172620   -37.888802 -78.285132
1440 -36.492309 -67.321587  -21.961817 41.956236   -50.700011 -175.724960 -0.089205  -20.747935
     -21.960802 41.954427   -22.350340 2.398686    -0.335655  -75.879444  -50.252382 -161.406560
     -50.591789 -176.929860 -0.338752  -75.871468  -21.661515 -3.204333   -21.942257 41.834865
     -0.092316  -20.739660  -50.251300 -160.530930 -21.945506 41.783831   -38.031890 -78.121639
1450 -36.591536 -66.341840  -21.934943 41.637589   -50.515360 -174.816660 -0.088930  -20.860036
     -21.931206 41.605043   -22.333104 1.812248    -0.337290  -76.383694  -50.108223 -160.244730
     -50.436968 -176.060830 -0.340783  -76.372791  -21.630624 -3.199239   -21.915312 41.480729
     -0.092902  -20.858289  -49.970922 -159.754590 -21.918633 41.437802   -38.445913 -77.823576
1460 -36.460727 -65.879946  -21.898780 41.358305   -50.288059 -175.910270 -0.089519  -20.977114
     -21.900694 41.364598   -22.294017 0.985613    -0.337858  -76.894780  -49.977706 -161.658410
     -50.196017 -178.121470 -0.341083  -76.881488  -21.616911 -3.357944   -21.885210 41.208287
     -0.093155  -20.978221  -49.869089 -160.987740 -21.887685 41.186661   -38.678329 -79.866967
1470 -36.179037 -65.748777  -21.859204 41.042056   -50.249965 -177.363500 -0.089821  -21.123604
     -21.861878 41.037097   -22.252324 0.235495    -0.339356  -77.431257  -50.061527 -162.386180
     -50.215389 -178.923480 -0.343093  -77.419763  -21.602324 -3.426336   -21.848286 40.877617
     -0.093051  -21.121306  -49.971300 -161.564010 -21.852878 40.871861   -38.772515 -81.483005
1480 -35.974231 -65.922266  -21.825715 40.701093   -50.381857 -177.888710 -0.090772  -21.275718
     -21.826506 40.692548   -22.222642 -0.396259   -0.341037  -77.980397  -50.072116 -161.655330
     -50.301722 -179.161110 -0.344278  -77.961456  -21.584953 -3.429388   -21.816913 40.551459
     -0.094232  -21.275649  -49.922030 -161.207760 -21.815990 40.522434   -38.605575 -83.483616
1490 -35.753300 -66.315098  -21.796366 40.337643   -50.310505 -177.637560 -0.090623  -21.422523
     -21.797492 40.358892   -22.178937 -1.027327   -0.342835  -78.514729  -49.935633 -161.425910
     -50.316098 -179.201290 -0.344520  -78.493645  -21.569191 -3.668319   -21.785156 40.222809
     -0.093306  -21.419385  -50.029082 -161.361240 -21.788938 40.199459   -38.353667 -86.029713
1500 -35.391445 -67.899333  -21.766343 40.069560   -50.153555 -177.704620 -0.090876  -21.543341
     -21.769027 40.060698   -22.156065 -1.350102   -0.342795  -79.026910  -49.901073 -161.409030
     -50.197124 -179.147720 -0.344551  -79.003066  -21.553022 -4.010833   -21.752781 39.919588
     -0.094353  -21.543154  -49.915355 -161.555900 -21.754469 39.908827   -37.868014 -88.959614
1510 -35.103577 -69.757438  -21.732359 39.778841   -50.183219 -178.366090 -0.091149  -21.658499
     -21.733911 39.773744   -22.135569 -1.447804   -0.344034  -79.539723  -49.965458 -161.036670
     -50.181984 -179.313790 -0.346676  -79.521747  -21.554268 -4.658450   -21.719707 39.625745
     -0.094669  -21.658551  -49.927013 -161.671530 -21.722709 39.610233   -37.403527 -89.878444
1520 -35.058765 -72.051625  -21.701969 39.442895   -50.223777 -177.898030 -0.092260  -21.800129
     -21.703929 39.436753   -22.126175 -1.458165   -0.345379  -80.086107  -49.914659 -161.252730
     -50.150832 -178.717100 -0.347506  -80.063941  -21.548412 -5.369792   -21.686855 39.309594
     -0.095256  -21.797595  -49.871949 -161.352970 -21.690673 39.264220   -36.934211 -89.572762
1530 -34.997170 -73.462966  -21.672669 39.089495   -50.375813 -177.617020 -0.093139  -21.952415
     -21.673010 39.110511   -22.110795 -1.400721   -0.346233  -80.627468  -49.775989 -161.338190
     -50.106265 -178.834600 -0.347449  -80.609509  -21.521440 -6.277805   -21.655430 38.961226
     -0.096669  -21.948334  -49.796330 -160.704170 -21.656301 38.923975   -36.614842 -88.023882
1540 -35.151582 -74.926742  -21.641453 38.763762   -50.270699 -177.693130 -0.092759  -22.089384
     -21.641432 38.790850   -22.113230 -1.313779   -0.346818  -81.175272  -49.642092 -160.998510
     -50.069224 -178.627580 -0.348221  -81.157752  -21.494594 -7.148823   -21.623388 38.630971
     -0.095782  -22.091743  -49.757269 -160.633010 -21.629329 38.589435   -36.503248 -86.498035
1550 -35.384341 -76.189982  -21.611910 38.469035   -50.195415 -177.274160 -0.092362  -22.204742
     -21.612207 38.470138   -22.083575 -1.087644   -0.347439  -81.687658  -49.609788 -161.138080
     -50.028091 -178.421540 -0.348944  -81.671382  -21.471180 -8.035901   -21.596716 38.309691
     -0.096094  -22.206657  -49.560308 -161.120440 -21.597575 38.282838   -36.447737 -84.462380
1560 -35.731419 -76.941264  -21.584875 38.165143   -50.083856 -177.095910 -0.093169  -22.326734
     -21.584741 38.156629   -22.065959 -0.906197   -0.349561  -82.203224  -49.399773 -161.644630
     -49.896391 -178.840860 -0.351194  -82.189470  -21.417967 -8.921854   -21.568097 37.999058
     -0.096670  -22.322749  -49.357264 -161.521450 -21.569547 37.976511   -36.538528 -82.266098
1570 -36.092623 -77.347695  -21.556531 37.834880   -50.002762 -178.055940 -0.093806  -22.468310
     -21.554965 37.836400   -22.031887 -0.914577   -0.351683  -82.743083  -49.295915 -162.082210
     -49.861312 -179.654570 -0.353408  -82.729174  -21.354347 -9.502229   -21.541190 37.677876
     -0.097120  -22.458975  -49.209419 -162.269930 -21.542264 37.645558   -36.712158 -79.461861
1580 -36.403651 -76.913709  -21.529053 37.512717   -49.943889 -178.361990 -0.094935  -22.615625
     -21.529672 37.513094   -21.980572 -0.947648   -0.353414  -83.279163  -49.264446 -162.572750
     -49.778162 179.542670  -0.355832  -83.270749  -21.301913 -10.009086  -21.514218 37.339634
     -0.098167  -22.615142  -49.148963 -162.760770 -21.516946 37.315338   -36.986046 -78.250433
1590 -36.519836 -76.447074  -21.503091 37.180915   -49.932048 -179.534850 -0.093697  -22.763167
     -21.502740 37.170850   -21.915860 -1.212689   -0.354958  -83.825472  -49.149398 -163.117160
     -49.782531 178.923570  -0.357736  -83.804586  -21.238599 -10.231418  -21.488490 37.031637
     -0.098416  -22.749028  -49.071455 -163.040140 -21.490653 37.003441   -37.261571 -78.056896
1600 -36.605724 -75.789521  -21.475030 36.855621   -49.907437 179.461300  -0.094182  -22.884216
     -21.475913 36.862407   -21.841956 -1.620499   -0.356831  -84.333272  -49.130825 -163.749170
     -49.724190 177.931970  -0.358493  -84.324724  -21.198263 -10.497010  -21.461024 36.719092
     -0.098061  -22.876556  -49.067765 -164.439210 -21.463911 36.674997   -37.531479 -80.063068
1610 -36.261599 -75.340299  -21.450493 36.535649   -49.936173 177.616150  -0.095617  -23.006204
     -21.449876 36.552256   -21.777877 -1.995221   -0.358283  -84.844638  -49.084337 -164.167520
     -49.805042 176.692410  -0.359976  -84.833254  -21.135830 -10.598500  -21.436029 36.410052
     -0.099543  -22.989513  -49.041088 -164.867850 -21.437016 36.381710   -37.765957 -83.359912
1620 -35.934989 -74.922262  -21.427336 36.196751   -50.111176 176.770530  -0.097320  -23.147808
     -21.426092 36.212410   -21.707771 -2.455832   -0.360650  -85.378992  -48.966078 -164.825900
     -49.874808 175.646340  -0.361627  -85.371871  -21.092340 -10.715991  -21.412347 36.070423
     -0.099953  -23.137888  -49.109922 -165.508370 -21.413187 36.052204   -37.853273 -87.832847
1630 -35.440184 -74.921410  -21.402474 35.852835   -50.272459 175.435010  -0.098891  -23.297448
     -21.401299 35.881592   -21.647170 -2.922528   -0.361907  -85.926093  -49.053402 -165.126110
     -50.106326 175.073480  -0.362845  -85.909093  -21.042796 -10.879386  -21.387251 35.730033
     -0.099349  -23.285002  -49.075726 -165.916160 -21.386880 35.717920   -37.684818 -91.975245
1640 -34.984634 -75.812577  -21.381138 35.553515   -50.442239 174.942700  -0.099296  -23.440552
     -21.380106 35.577819   -21.615927 -3.284516   -0.362864  -86.457592  -48.978613 -165.568230
     -50.206424 174.914630  -0.363267  -86.450279  -21.018756 -11.216863  -21.362794 35.405072
     -0.099826  -23.424590  -49.079271 -165.604690 -21.363935 35.374260   -37.378735 -97.076491
1650 -34.550661 -75.857021  -21.354697 35.248450   -50.689130 175.211310  -0.099062  -23.555779
     -21.352617 35.263984   -21.605287 -3.570033   -0.363256  -86.974246  -49.057818 -165.221620
     -50.401361 174.359090  -0.364689  -86.959876  -21.029926 -11.554531  -21.337597 35.098795
     -0.099235  -23.547031  -49.049136 -165.403890 -21.339493 35.051454   -36.825067 -100.314230
1660 -34.210666 -77.380307  -21.330877 34.954750   -50.744827 175.506060  -0.100502  -23.678606
     -21.329623 34.959875   -21.613327 -3.696868   -0.364741  -87.488897  -49.080994 -165.064290
     -50.613693 174.502930  -0.367334  -87.468856  -21.044243 -12.105766  -21.314652 34.778384
     -0.100427  -23.667187  -49.004670 -165.287260 -21.317217 34.749940   -36.321234 -101.973890
1670 -34.100103 -78.272346  -21.309559 34.627210   -50.875191 176.407700  -0.100141  -23.821485
     -21.310841 34.641796   -21.652769 -3.850084   -0.366638  -88.028698  -48.892273 -164.988670
     -50.672162 175.097240  -0.369120  -88.010324  -21.064427 -12.766409  -21.292590 34.438528
     -0.101614  -23.809238  -48.924166 -165.270910 -21.294539 34.430461   -36.010585 -102.591370
1680 -34.009321 -79.112936  -21.288107 34.300305   -50.919490 177.098770  -0.099710  -23.972793
     -21.287957 34.306145   -21.706697 -3.946975   -0.366913  -88.577070  -48.859019 -164.869560
     -50.710738 176.063840  -0.370402  -88.555289  -21.096280 -13.399900  -21.269225 34.112315
     -0.101945  -23.956040  -48.817421 -165.365840 -21.272651 34.090923   -35.813492 -101.477070
1690 -34.143484 -80.438295  -21.263284 33.988955   -50.877855 178.079250  -0.099131  -24.111245
     -21.265812 33.974260   -21.751926 -4.234561   -0.367122  -89.122387  -48.779379 -164.958320
     -50.687237 177.184530  -0.370712  -89.099386  -21.128376 -13.914243  -21.249354 33.790955
     -0.101972  -24.096969  -48.786639 -165.325410 -21.252386 33.770395   -35.634432 -100.119530
1700 -34.416401 -81.126133  -21.243339 33.671575   -50.901042 178.429660  -0.099067  -24.224786
     -21.241912 33.663425   -21.799267 -4.534729   -0.367281  -89.636294  -48.744719 -165.108830
     -50.655524 177.203750  -0.371159  -89.615924  -21.144500 -14.462238  -21.229892 33.485389
     -0.101749  -24.217452  -48.710159 -165.954540 -21.231459 33.447443   -35.600005 -97.703509
1710 -34.745636 -81.676905  -21.224922 33.347995   -50.739282 179.121810  -0.099999  -24.341653
     -21.225241 33.353701   -21.829108 -5.096671   -0.368871  -90.156691  -48.747416 -165.760900
     -50.486993 177.895380  -0.372343  -90.133331  -21.190884 -14.776072  -21.208605 33.163626
     -0.103921  -24.331722  -48.749197 -166.597870 -21.212132 33.140295   -35.695585 -95.454651
1720 -35.078811 -82.652383  -21.206152 33.006026   -50.613901 179.163000  -0.101288  -24.484647
     -21.205177 33.014821   -21.839128 -5.653390   -0.370696  -90.696632  -48.821573 -166.286760
     -50.406838 178.112720  -0.374330  -90.678632  -21.202980 -15.084555  -21.188365 32.837112
     -0.104599  -24.468413  -48.751094 -167.288600 -21.193470 32.796545   -35.849203 -92.874261
1730 -35.428317 -83.737122  -21.184739 32.667232   -50.486713 178.582050  -0.101521  -24.632338
     -21.186795 32.683361   -21.824909 -6.305635   -0.372793  -91.249614  -48.756190 -166.807570
     -50.280730 177.912520  -0.374135  -91.229515  -21.220072 -15.183894  -21.171901 32.506273
     -0.105140  -24.612575  -48.821270 -167.514430 -21.173828 32.463577   -36.003438 -90.706091
1740 -35.626977 -84.327575  -21.169075 32.337233   -50.401477 178.208090  -0.102161  -24.769825
     -21.167319 32.348083   -21.802427 -6.865295   -0.374152  -91.793143  -48.758692 -166.886990
     -50.174920 177.763650  -0.376200  -91.776614  -21.211414 -15.369702  -21.153041 32.174192
     -0.104965  -24.751973  -48.860482 -168.027150 -21.156286 32.144043   -36.217970 -89.744369
1750 -35.656537 -85.657794  -21.150763 32.029389   -50.266662 177.394780  -0.102724  -24.888381
     -21.148531 32.041029   -21.771283 -7.302170   -0.374578  -92.318342  -48.897873 -167.533210
     -50.102812 177.163800  -0.376777  -92.292409  -21.228899 -15.594235  -21.134813 31.866371
     -0.105694  -24.870498  -48.883968 -168.141180 -21.138727 31.845626   -36.176863 -89.919981
1760 -35.531931 -87.130121  -21.132727 31.730176   -50.468185 177.215160  -0.104424  -25.005755
     -21.133112 31.732013   -21.736952 -7.520185   -0.376036  -92.828366  -48.963845 -167.706590
     -50.144584 176.594630  -0.377868  -92.812663  -21.226446 -16.194403  -21.117767 31.543497
     -0.106670  -24.986669  -48.890865 -168.119420 -21.120578 31.520618   -36.071950 -90.599486
1770 -35.184942 -88.767408  -21.119289 31.390282   -50.599773 176.711880  -0.105518  -25.153254
     -21.117931 31.388105   -21.697709 -7.624345   -0.378792  -93.377592  -48.970137 -166.803010
     -50.340774 176.473990  -0.380871  -93.349006  -21.198159 -16.703044  -21.102864 31.200052
     -0.108403  -25.134041  -48.934436 -167.888530 -21.106214 31.189939   -35.798522 -92.511668
1780 -34.885161 -90.371347  -21.105307 31.067787   -50.685015 177.053050  -0.106611  -25.296182
     -21.101821 31.054346   -21.670786 -7.473661   -0.379844  -93.923494  -48.951381 -166.688770
     -50.424082 176.761550  -0.381996  -93.901920  -21.190276 -17.558912  -21.087150 30.884072
     -0.108643  -25.281654  -48.815770 -167.589140 -21.091894 30.853558   -35.456259 -94.080281
1790 -34.567800 -91.775815  -21.084587 30.749394   -50.824872 177.358310  -0.105971  -25.437642
     -21.086471 30.739813   -21.655833 -7.326106   -0.381658  -94.462761  -48.862159 -165.982150
     -50.610104 176.736080  -0.382305  -94.443851  -21.169526 -18.558179  -21.070271 30.559964
     -0.108922  -25.424271  -48.855923 -167.148110 -21.075309 30.520744   -35.112453 -95.227023
1800 -34.328781 -93.733775  -21.071919 30.441265   -51.020647 176.762980  -0.105525  -25.561805
     -21.070926 30.436598   -21.650018 -7.006847   -0.381940  -94.980047  -48.839202 -165.816380
     -50.798808 177.749410  -0.382993  -94.958049  -21.156484 -19.530482  -21.057734 30.223022
     -0.108795  -25.542037  -48.681301 -167.463830 -21.059489 30.197585   -34.591490 -94.905184
1810 -34.232704 -95.652480  -21.055816 30.130933   -51.021323 177.981470  -0.106834  -25.676843
     -21.054301 30.121327   -21.665510 -6.735730   -0.384652  -95.502789  -48.743751 -166.073190
     -50.872930 178.464430  -0.384919  -95.475840  -21.135869 -20.438401  -21.043412 29.923650
     -0.110372  -25.665121  -48.531968 -167.708570 -21.046826 29.879710   -34.284705 -94.377780
1820 -34.233899 -97.313804  -21.042586 29.797579   -51.039413 178.094880  -0.107269  -25.818428
     -21.041058 29.800562   -21.683549 -6.768392   -0.385623  -96.037999  -48.619273 -166.827340
     -50.924285 178.850510  -0.386710  -96.018570  -21.116623 -21.115915  -21.027934 29.577391
     -0.111125  -25.815126  -48.567183 -167.944670 -21.032620 29.552078   -34.073971 -92.918741
1830 -34.321200 -98.930952  -21.026343 29.449874   -51.040806 179.348510  -0.108466  -25.969134
     -21.027109 29.450775   -21.702079 -6.954220   -0.386641  -96.590164  -48.527916 -166.761660
     -50.848477 179.593800  -0.388273  -96.574733  -21.119399 -21.564018  -21.016864 29.243139
     -0.111834  -25.959875  -48.489091 -168.283920 -21.017791 29.226578   -33.930048 -91.203720
1840 -34.502640 -100.845500 -21.012934 29.114479   -50.894396 -179.709050 -0.108282  -26.112063
     -21.014269 29.105573   -21.706252 -7.391670   -0.386571  -97.143949  -48.518689 -167.715610
     -50.762891 -179.636690 -0.387827  -97.121607  -21.140335 -21.795048  -21.004714 28.911802
     -0.112072  -26.099939  -48.489767 -169.176040 -21.005578 28.896989   -33.879799 -89.468262
1850 -34.681093 -101.637740 -21.001629 28.774697   -50.930122 -179.656230 -0.108424  -26.220472
     -21.000284 28.788948   -21.753751 -8.274309   -0.386329  -97.659097  -48.619851 -168.172760
     -50.722259 -179.687580 -0.389013  -97.647833  -21.170054 -21.801579  -20.994124 28.592619
     -0.112126  -26.217698  -48.569242 -169.346400 -20.993261 28.575986   -33.976365 -87.838046
1860 -34.893110 -102.305290 -20.994496 28.463650   -50.786185 -179.491290 -0.109460  -26.333550
     -20.991454 28.471279   -21.797011 -9.233342   -0.386815  -98.178717  -48.597486 -169.056780
     -50.554043 -179.283050 -0.390402  -98.177356  -21.211874 -21.638306  -20.984007 28.303138
     -0.113210  -26.328672  -48.489904 -169.911840 -20.985228 28.289915   -34.255442 -86.693491
1870 -34.914654 -101.418300 -20.981954 28.129914   -50.707495 179.399790  -0.111332  -26.476018
     -20.981433 28.156285   -21.785315 -10.427441  -0.387872  -98.726961  -48.752244 -169.661780
     -50.508134 179.952680  -0.392113  -98.717741  -21.252674 -21.223335  -20.969674 27.974915
     -0.113674  -26.458796  -48.708708 -170.576230 -20.972949 27.985365   -34.468645 -87.270509
1880 -34.807323 -100.774280 -20.972700 27.779219   -50.575949 179.400300  -0.111501  -26.620739
     -20.971763 27.788555   -21.794435 -11.706693  -0.389180  -99.283454  -49.000015 -168.624880
     -50.547906 179.859650  -0.393421  -99.272756  -21.289360 -20.789396  -20.957846 27.640628
     -0.113523  -26.605581  -48.931584 -169.812120 -20.961627 27.642296   -34.585116 -89.158522
1890 -34.445568 -99.123020  -20.964841 27.464597   -50.644414 178.849310  -0.111435  -26.759117
     -20.963320 27.463350   -21.787279 -12.751157  -0.389412  -99.828166  -49.146378 -167.566800
     -50.515089 179.246280  -0.394534  -99.822337  -21.345197 -20.523470  -20.950351 27.310383
     -0.113281  -26.740300  -48.901507 -168.861690 -20.952442 27.314103   -34.624340 -91.938133
1900 -33.937823 -98.128698  -20.954700 27.157432   -50.633996 178.080980  -0.111067  -26.875037
     -20.953677 27.158483   -21.782827 -13.658038  -0.390659  -100.342540 -49.171872 -166.832620
     -50.662305 179.737390  -0.395019  -100.343000 -21.409615 -20.429819  -20.939889 27.013132
     -0.112838  -26.853601  -48.976416 -168.390460 -20.941955 27.001764   -34.486295 -95.830997
1910 -33.377709 -96.875497  -20.945361 26.847111   -50.676464 178.299470  -0.112140  -26.994659
     -20.947213 26.862542   -21.786286 -14.302640  -0.392141  -100.869850 -49.171987 -164.909030
     -50.734886 179.807290  -0.396071  -100.862240 -21.474138 -20.517358  -20.931427 26.710252
     -0.114097  -26.977965  -48.950889 -167.150980 -20.930596 26.684300   -34.157095 -100.267170
1920 -32.810586 -96.585210  -20.938378 26.531334   -50.771021 179.166580  -0.112488  -27.142817
     -20.937743 26.530082   -21.778279 -14.556300  -0.394268  -101.410880 -49.041748 -163.753910
     -50.783860 -179.912370 -0.397569  -101.407180 -21.529235 -21.013797  -20.923689 26.366873
     -0.115857  -27.121825  -48.877395 -166.306800 -20.924831 26.347426   -33.658587 -103.367080
1930 -32.248390 -96.609072  -20.929847 26.194649   -50.879596 179.794950  -0.112977  -27.293864
     -20.933178 26.195750   -21.800037 -14.725019  -0.395341  -101.961950 -48.923420 -162.795360
     -50.773861 -178.671190 -0.398467  -101.959970 -21.563473 -21.641353  -20.913377 26.034493
     -0.115437  -27.283043  -48.750171 -165.026900 -20.916782 26.012464   -33.128028 -106.148870
1940 -31.852450 -97.253107  -20.923333 25.871950   -51.017167 -179.086370 -0.113113  -27.447103
     -20.924130 25.862786   -21.807520 -14.597873  -0.395959  -102.514480 -48.735679 -161.967950
     -50.788132 -177.843990 -0.398535  -102.510030 -21.589483 -22.535145  -20.906839 25.692062
     -0.115937  -27.426746  -48.616171 -163.983260 -20.909207 25.687530   -32.581252 -107.414320
1950 -31.610825 -98.094664  -20.916058 25.570364   -51.019188 -177.487000 -0.113638  -27.559696
     -20.915129 25.571846   -21.818750 -14.384025  -0.397028  -103.045710 -48.549661 -161.968250
     -50.785444 -177.276090 -0.398382  -103.035440 -21.619024 -23.600691  -20.898295 25.364314
     -0.117314  -27.549488  -48.424116 -163.494710 -20.901963 25.349756   -32.188653 -107.413320
1960 -31.481901 -99.271566  -20.911189 25.251063   -50.994757 -176.721600 -0.115189  -27.680536
     -20.912277 25.245744   -21.863214 -14.248987  -0.398269  -103.562960 -48.388206 -162.115660
     -50.758315 -175.741770 -0.400365  -103.557140 -21.641878 -24.591043  -20.895207 25.046373
     -0.117887  -27.661385  -48.268549 -163.331160 -20.896565 25.034096   -31.918546 -106.399910
1970 -31.537237 -100.555810 -20.907187 24.907894   -50.804189 -176.168060 -0.116012  -27.820886
     -20.904902 24.926291   -21.850978 -14.250492  -0.399391  -104.121530 -48.279016 -162.651600
     -50.651877 -175.313390 -0.403088  -104.108810 -21.617616 -25.376682  -20.887036 24.706722
     -0.118896  -27.798315  -48.095212 -163.984670 -20.891326 24.708716   -31.759512 -105.088000
1980 -31.687748 -101.787850 -20.903308 24.589297   -50.519117 -175.144960 -0.115723  -27.965265
     -20.901011 24.583104   -21.837603 -14.492346  -0.400697  -104.679640 -48.131911 -163.083630
     -50.414253 -174.002400 -0.404487  -104.668800 -21.602143 -26.178998  -20.883061 24.370420
     -0.120162  -27.940980  -48.002263 -164.625220 -20.883916 24.370751   -31.730727 -103.597680
1990 -31.874328 -102.811490 -20.900521 24.258927   -50.244580 -175.667070 -0.116219  -28.095333
     -20.896181 24.254886   -21.802739 -14.896045  -0.402212  -105.234340 -48.023632 -163.708630
     -50.249805 -174.094230 -0.405412  -105.215250 -21.576920 -26.782296  -20.880320 24.039583
     -0.119167  -28.077027  -47.881405 -165.234930 -20.882263 24.029700   -31.836160 -102.029140
2000 -32.169084 -103.227410 -20.892416 23.975285   -50.137656 -176.928990 -0.115207  -28.210005
     -20.891754 23.962069   -21.782832 -15.368042  -0.403799  -105.758250 -48.002296 -164.208970
     -50.117930 -174.984860 -0.406269  -105.742040 -21.544492 -27.226871  -20.877804 23.714207
     -0.118673  -28.183504  -47.798081 -166.371130 -20.878643 23.735793   -32.070812 -100.210900
2010 -32.418961 -103.132460 -20.889143 23.642771   -49.981549 -177.728590 -0.116305  -28.315565
     -20.888588 23.642169   -21.749874 -15.934516  -0.405217  -106.281270 -47.946682 -165.139510
     -50.005369 -175.686620 -0.407905  -106.269280 -21.529594 -27.497840  -20.875807 23.420573
     -0.119143  -28.298039  -47.754290 -167.059290 -20.874749 23.406535   -32.353460 -99.264008
2020 -32.534406 -102.464760 -20.889018 23.299114   -49.967199 -179.086210 -0.116425  -28.449908
     -20.884960 23.307205   -21.683591 -16.503357  -0.406697  -106.833550 -47.958940 -165.774200
     -49.993005 -176.847050 -0.409585  -106.818710 -21.475221 -27.884408  -20.872583 23.084639
     -0.119468  -28.433455  -47.743878 -167.337110 -20.871480 23.099331   -32.597005 -99.429038
2030 -32.522553 -101.513020 -20.884626 22.985241   -50.025050 179.819070  -0.117230  -28.593845
     -20.885913 22.992316   -21.651172 -17.071975  -0.408174  -107.386790 -47.887493 -165.467000
     -50.103112 -178.093610 -0.411052  -107.379530 -21.432313 -28.057608  -20.869175 22.774674
     -0.119320  -28.585521  -47.762588 -167.422310 -20.869385 22.742226   -32.720752 -100.831280
2040 -32.402506 -101.191600 -20.881789 22.660674   -50.104583 178.795250  -0.117105  -28.741861
     -20.879157 22.662067   -21.578691 -17.493535  -0.409477  -107.938040 -47.963967 -165.962230
     -50.073293 -178.850160 -0.411993  -107.936960 -21.371174 -28.311567  -20.865836 22.445402
     -0.119773  -28.729283  -47.723099 -167.768680 -20.869483 22.442117   -32.672361 -102.412270
2050 -32.137275 -100.383430 -20.878495 22.330682   -50.344341 178.757430  -0.117173  -28.854829
     -20.877931 22.320178   -21.546969 -17.853416  -0.409384  -108.457640 -47.982059 -165.907870
     -50.428846 -178.716450 -0.411555  -108.460040 -21.345712 -28.724912  -20.863265 22.115244
     -0.120155  -28.849216  -47.815562 -167.167180 -20.864925 22.101051   -32.540500 -104.198900
2060 -31.894488 -100.478580 -20.881889 21.998078   -50.462944 -179.788600 -0.118464  -28.977223
     -20.880453 22.000774   -21.489461 -18.125950  -0.411620  -108.977900 -48.038878 -166.132750
     -50.522401 -178.298640 -0.414321  -108.982410 -21.339269 -29.146373  -20.864667 21.780532
     -0.121447  -28.966213  -47.853252 -167.097230 -20.866586 21.760548   -32.214437 -105.605860
2070 -31.566822 -101.394330 -20.880635 21.695299   -50.597134 -179.210650 -0.119637  -29.129150
     -20.881140 21.694919   -21.450369 -18.280290  -0.413401  -109.524550 -48.021810 -166.003370
     -50.621858 -177.516730 -0.415763  -109.529150 -21.314999 -29.531016  -20.864795 21.445405
     -0.122738  -29.117219  -47.806763 -167.223480 -20.868005 21.447438   -31.761977 -106.286700
2080 -31.255240 -102.946130 -20.881471 21.338520   -50.677866 -178.170040 -0.120677  -29.285957
     -20.881754 21.362051   -21.433934 -18.544007  -0.414120  -110.083500 -48.055166 -165.667200
     -50.722984 -176.262810 -0.417302  -110.086850 -21.303429 -29.951572  -20.869173 21.095054
     -0.124478  -29.265170  -47.836379 -167.020520 -20.869794 21.094061   -31.360491 -106.556450
2090 -31.081519 -104.946920 -20.887235 20.991641   -50.514956 -175.092440 -0.121560  -29.427327
     -20.886922 20.988026   -21.428018 -18.848687  -0.415331  -110.639000 -48.049496 -165.002780
     -50.554961 -173.013720 -0.418688  -110.635470 -21.307193 -30.350372  -20.868940 20.724445
     -0.125377  -29.405908  -47.876635 -166.433510 -20.871460 20.747469   -30.938474 -105.567060
2100 -30.946209 -106.467990 -20.890456 20.710611   -50.139877 -174.185080 -0.121147  -29.542101
     -20.892202 20.684655   -21.434629 -19.166111  -0.415871  -111.155020 -48.048994 -165.193280
     -50.378857 -172.268800 -0.418678  -111.153470 -21.335758 -30.775318  -20.878775 20.426172
     -0.124818  -29.515199  -47.707617 -166.855530 -20.880724 20.442114   -30.653430 -103.652040
2110 -30.932924 -108.439380 -20.893426 20.413286   -49.853045 -174.476570 -0.121861  -29.655719
     -20.895330 20.398985   -21.460973 -19.657494  -0.417314  -111.679850 -47.998212 -165.860060
     -50.100453 -172.283170 -0.419915  -111.674180 -21.343424 -31.159985  -20.884363 20.140200
     -0.124638  -29.637694  -47.690158 -166.853880 -20.885050 20.138172   -30.493013 -101.532360
2120 -30.967583 -110.211730 -20.897361 20.086661   -49.638700 -174.104050 -0.122316  -29.788365
     -20.898842 20.082816   -21.463452 -20.188067  -0.418988  -112.230060 -47.989590 -165.332440
     -49.865424 -172.240370 -0.421466  -112.227260 -21.366642 -31.388512  -20.886979 19.818710
     -0.124286  -29.776112  -47.753023 -167.570000 -20.886675 19.830822   -30.394321 -99.425578
2130 -31.017294 -111.620480 -20.899494 19.747433   -49.262851 -175.412570 -0.121440  -29.934741
     -20.902711 19.753137   -21.481858 -20.712991  -0.419016  -112.795510 -47.961988 -165.062730
     -49.485736 -172.586700 -0.422113  -112.789640 -21.388048 -31.478930  -20.890309 19.509977
     -0.123362  -29.923292  -47.679792 -167.271310 -20.891919 19.505097   -30.442391 -98.128179
2140 -31.063762 -111.958440 -20.904881 19.434922   -49.158553 -177.002160 -0.120763  -30.070192
     -20.907609 19.420737   -21.506106 -21.187896  -0.419151  -113.351320 -47.940070 -164.188940
     -49.357683 -173.852860 -0.421788  -113.338060 -21.444312 -31.693737  -20.891585 19.198023
     -0.121611  -30.062906  -47.685600 -166.772040 -20.894301 19.214141   -30.528092 -97.399224
2150 -31.180893 -111.451000 -20.907811 19.130725   -49.148605 -178.393790 -0.119211  -30.186929
     -20.910106 19.132342   -21.542018 -21.642969  -0.419779  -113.874650 -47.867199 -164.129580
     -49.338844 -175.345230 -0.423341  -113.866540 -21.494739 -32.102529  -20.890936 18.894933
     -0.120457  -30.171484  -47.688407 -166.050440 -20.896256 18.900470   -30.716700 -96.946930
2160 -31.222557 -110.080570 -20.911778 18.814184   -49.175931 -179.396800 -0.120159  -30.302153
     -20.912453 18.813322   -21.536079 -22.137150  -0.420072  -114.400980 -47.903865 -164.303980
     -49.357154 -177.143870 -0.423810  -114.387420 -21.527909 -32.580433  -20.897818 18.593813
     -0.120974  -30.285437  -47.662372 -165.721330 -20.902282 18.572741   -30.932525 -97.980245
2170 -31.075236 -108.712260 -20.919979 18.481474   -49.311628 -179.940420 -0.121116  -30.446687
     -20.919953 18.463269   -21.532341 -22.382092  -0.421690  -114.945120 -47.776830 -163.239040
     -49.452750 -177.864590 -0.425269  -114.944770 -21.600468 -33.313005  -20.903172 18.242931
     -0.122391  -30.431127  -47.523907 -165.081040 -20.909674 18.255436   -31.039196 -100.548900
2180 -30.861688 -106.910210 -20.925503 18.140875   -49.532176 179.637130  -0.122115  -30.599293
     -20.923941 18.130733   -21.519904 -22.445438  -0.423217  -115.519310 -47.661166 -163.209790
     -49.724430 -178.077720 -0.426952  -115.511360 -21.629133 -34.209504  -20.909919 17.932891
     -0.123487  -30.582966  -47.415972 -164.632040 -20.915226 17.922841   -30.989479 -103.374780
2190 -30.548560 -105.557160 -20.932781 17.816144   -49.706218 -179.819680 -0.122388  -30.743225
     -20.931638 17.792308   -21.497788 -22.482003  -0.421328  -116.073040 -47.483650 -162.888010
     -49.989799 -177.391420 -0.425753  -116.066750 -21.642118 -35.171587  -20.918813 17.577630
     -0.124467  -30.726180  -47.251563 -164.733590 -20.922545 17.585231   -30.838159 -106.483580
2200 -30.345563 -104.268340 -20.941508 17.508486   -49.913675 -179.322960 -0.122749  -30.862515
     -20.942346 17.497920   -21.487528 -22.390490  -0.423559  -116.594100 -47.435952 -163.383760
     -50.259776 -176.774650 -0.427437  -116.601380 -21.642604 -36.386883  -20.928611 17.241531
     -0.124033  -30.843164  -47.069335 -165.037560 -20.930176 17.256092   -30.596689 -108.388070
2210 -30.109423 -103.629070 -20.948629 17.208497   -50.000116 -178.389570 -0.123826  -30.976183
     -20.948498 17.195437   -21.477291 -22.377669  -0.425586  -117.123670 -47.310185 -164.005420
     -50.421055 -175.856100 -0.428968  -117.131170 -21.611813 -37.638268  -20.937507 16.942978
     -0.125505  -30.957633  -46.902889 -165.441050 -20.939492 16.941019   -30.367695 -109.327100
2220 -29.994213 -104.205310 -20.955914 16.891244   -49.908471 -176.547600 -0.124396  -31.110591
     -20.960240 16.873503   -21.438213 -22.322294  -0.427629  -117.680350 -47.096827 -164.735420
     -50.333849 -174.430190 -0.431144  -117.692640 -21.559052 -38.479248  -20.946349 16.597559
     -0.126836  -31.103596  -46.759119 -166.620820 -20.947227 16.616529   -30.027101 -109.670620
2230 -29.940948 -105.212710 -20.966750 16.547497   -49.693621 -176.056020 -0.124646  -31.266493
     -20.968045 16.545196   -21.406949 -22.400410  -0.430001  -118.250380 -46.988839 -165.362370
     -50.156226 -173.409730 -0.432584  -118.261120 -21.496458 -39.098753  -20.956058 16.258080
     -0.125800  -31.250208  -46.611014 -167.134160 -20.959554 16.264853   -29.773663 -108.460730
2240 -30.007443 -106.640870 -20.975935 16.245160   -49.449670 -175.262450 -0.123619  -31.394852
     -20.977994 16.252765   -21.378537 -22.700813  -0.430223  -118.803140 -46.897183 -166.567610
     -49.896293 -172.332770 -0.433430  -118.814500 -21.426059 -39.647712  -20.969291 15.928336
     -0.125194  -31.391832  -46.590971 -168.575630 -20.968594 15.941747   -29.663891 -106.439990
2250 -30.244943 -108.391130 -20.985985 15.929310   -49.206854 -175.041850 -0.122575  -31.514043
     -20.987943 15.927080   -21.350558 -23.160830  -0.431757  -119.331420 -46.899262 -168.121320
     -49.641544 -172.803890 -0.433357  -119.346430 -21.371521 -39.982717  -20.977448 15.615820
     -0.124390  -31.505209  -46.585155 -169.482970 -20.981707 15.642765   -29.630422 -103.304330
2260 -30.551356 -110.079240 -20.996833 15.641881   -48.992801 -175.640860 -0.122992  -31.627881
     -21.000212 15.616781   -21.332127 -23.862701  -0.432540  -119.863950 -46.999985 -169.531890
     -49.428686 -173.537470 -0.434490  -119.870660 -21.333168 -40.256248  -20.988913 15.313418
     -0.123635  -31.615885  -46.664751 -170.536410 -20.992727 15.327570   -29.782472 -100.184410
2270 -30.900722 -111.848670 -21.005611 15.290580   -48.856112 -176.737740 -0.122179  -31.765409
     -21.009266 15.286598   -21.281231 -24.531260  -0.434306  -120.409090 -47.101183 -170.696820
     -49.276360 -174.421030 -0.436200  -120.423650 -21.287893 -40.347077  -20.999501 14.978244
     -0.123745  -31.755514  -46.743528 -171.730410 -21.003505 14.995602   -29.933644 -97.330216
2280 -31.219095 -113.439460 -21.017050 14.956449   -48.754074 -177.822980 -0.122667  -31.907230
     -21.020079 14.946403   -21.239332 -25.249424  -0.435702  -120.971400 -47.218564 -171.289030
     -49.198273 -175.655870 -0.437365  -120.981590 -21.254911 -40.302736  -21.012696 14.664834
     -0.124305  -31.898475  -46.845585 -172.362300 -21.017288 14.681966   -30.163012 -95.339487
2290 -31.456213 -114.072780 -21.032750 14.593043   -48.682668 -179.180100 -0.122445  -32.047620
     -21.034610 14.597429   -21.232234 -25.987037  -0.435938  -121.521120 -47.373147 -171.541430
     -49.142650 -176.691910 -0.437150  -121.533230 -21.258080 -40.224941  -21.026305 14.345253
     -0.124275  -32.033850  -46.943272 -172.222960 -21.030315 14.360114   -30.474508 -94.161977
2300 -31.692078 -113.594210 -21.048118 14.272834   -48.750345 179.780060  -0.122904  -32.154100
     -21.047790 14.267736   -21.232778 -26.762738  -0.435911  -122.042200 -47.542685 -171.227870
     -49.247437 -178.260340 -0.438006  -122.060770 -21.277886 -40.453396  -21.038745 14.045143
     -0.123926  -32.139709  -47.057256 -172.172570 -21.043924 14.064195   -30.755504 -93.648829
2310 -31.779365 -112.857410 -21.063734 13.959056   -48.793423 178.543090  -0.122629  -32.257851
     -21.065130 13.957423   -21.230309 -27.568800  -0.437415  -122.568610 -47.637935 -171.111960
     -49.370120 -179.554880 -0.439306  -122.587310 -21.302951 -40.578611  -21.053297 13.732334
     -0.125874  -32.250093  -47.146628 -172.181100 -21.056872 13.755304   -30.986389 -94.299145
2320 -31.582046 -111.494870 -21.082790 13.639779   -48.917049 177.612570  -0.124180  -32.398691
     -21.083023 13.635843   -21.249525 -28.093781  -0.437495  -123.124010 -47.647016 -170.960350
     -49.486384 179.478690  -0.439986  -123.144170 -21.343736 -40.684113  -21.067338 13.413839
     -0.126502  -32.383207  -47.234155 -171.835680 -21.070980 13.433765   -31.062421 -96.990794
2330 -31.159849 -110.246390 -21.100473 13.318436   -49.048147 177.898100  -0.124714  -32.547282
     -21.103547 13.300324   -21.295023 -28.651707  -0.439150  -123.688710 -47.702762 -169.887920
     -49.769873 179.633050  -0.440107  -123.697290 -21.393954 -40.900892  -21.085693 13.091321
     -0.126880  -32.537807  -47.310567 -170.847380 -21.087841 13.097733   -30.917148 -100.067940
2340 -30.731907 -109.548590 -21.118318 13.021034   -49.119860 178.474530  -0.124909  -32.686895
     -21.119556 13.010711   -21.333219 -29.133787  -0.439089  -124.243680 -47.685752 -169.562210
     -49.849995 -179.134940 -0.440954  -124.250170 -21.456948 -41.266971  -21.101616 12.757914
     -0.126614  -32.676947  -47.296735 -170.847710 -21.106001 12.773989   -30.595508 -102.592610
2350 -30.366576 -108.682930 -21.134237 12.717762   -49.265675 179.520380  -0.125483  -32.801134
     -21.136151 12.712010   -21.370093 -29.784101  -0.438947  -124.777460 -47.713662 -169.556910
     -49.965265 -178.775510 -0.441132  -124.778180 -21.512271 -41.858504  -21.119708 12.454567
     -0.126938  -32.797045  -47.339024 -170.209670 -21.121307 12.470976   -30.231399 -104.248830
2360 -30.057414 -108.823460 -21.152846 12.416361   -49.216717 -179.161530 -0.124834  -32.916748
     -21.152259 12.396598   -21.390883 -30.421226  -0.440268  -125.313990 -47.681232 -169.538720
     -49.941389 -178.166890 -0.442088  -125.317570 -21.551838 -42.373113  -21.136226 12.153620
     -0.127053  -32.912001  -47.343033 -169.679410 -21.138073 12.147481   -29.878421 -104.921550
2370 -29.753110 -109.476440 -21.167999 12.082495   -49.104244 -177.929310 -0.125891  -33.059065
     -21.171103 12.073984   -21.403229 -30.796059  -0.441458  -125.875560 -47.619554 -168.874660
     -49.829524 -176.848270 -0.442723  -125.871610 -21.579576 -42.875417  -21.154191 11.830204
     -0.127956  -33.058652  -47.160738 -169.256000 -21.158198 11.814810   -29.483037 -105.365420
2380 -29.610529 -110.330740 -21.186515 11.759780   -48.958479 -177.554060 -0.125109  -33.220160
     -21.188621 11.747318   -21.374592 -31.281090  -0.443562  -126.450680 -47.492739 -169.072330
     -49.545196 -175.611580 -0.444808  -126.450750 -21.567152 -43.210197  -21.174451 11.461412
     -0.128057  -33.210908  -47.103270 -169.753060 -21.175637 11.492771   -29.226592 -104.864340
2390 -29.597834 -110.857420 -21.205766 11.419462   -48.713445 -177.231620 -0.123827  -33.359301
     -21.208177 11.414700   -21.364825 -31.714199  -0.444185  -127.014580 -47.480060 -169.113910
     -49.488751 -175.471220 -0.445193  -127.004920 -21.562120 -43.746883  -21.190589 11.127337
     -0.126138  -33.349622  -47.030616 -169.322110 -21.195339 11.144480   -29.143310 -103.703070
2400 -29.802385 -111.587090 -21.224318 11.108659   -48.528167 -177.699470 -0.122902  -33.476462
     -21.228763 11.088357   -21.331658 -32.244216  -0.445015  -127.548180 -47.350067 -169.351700
     -49.144371 -176.540690 -0.445201  -127.539610 -21.549294 -44.317032  -21.214626 10.819829
     -0.125813  -33.461225  -47.031682 -169.582450 -21.216122 10.835178   -29.254634 -102.613670
2410 -30.058530 -111.466710 -21.250187 10.779783   -48.421607 -178.922080 -0.123286  -33.594911
     -21.250223 10.785163   -21.285722 -32.779389  -0.446414  -128.070890 -47.348766 -170.144260
     -48.974969 -178.612860 -0.447185  -128.071700 -21.528149 -45.059612  -21.236387 10.527690
     -0.125248  -33.577937  -46.920428 -169.667700 -21.237937 10.504792   -29.476444 -101.232380
2420 -30.301902 -111.229980 -21.273057 10.470518   -48.398947 179.322750  -0.124281  -33.740763
     -21.272579 10.465219   -21.234015 -33.097767  -0.447924  -128.627080 -47.291998 -170.787700
     -49.071071 179.769670  -0.448741  -128.632110 -21.492669 -45.696089  -21.254328 10.198109
     -0.126502  -33.723850  -46.858991 -170.293780 -21.257132 10.210770   -29.741093 -101.052200
2430 -30.422094 -110.596210 -21.298501 10.144364   -48.477436 178.029340  -0.124765  -33.887769
     -21.293769 10.124698   -21.177094 -33.349238  -0.449349  -129.191010 -47.269771 -170.791000
     -49.091144 178.908240  -0.450792  -129.200550 -21.470028 -46.334985  -21.276610 9.839293
     -0.126772  -33.871859  -46.837609 -170.846070 -21.276912 9.864973    -29.999376 -101.431610
2440 -30.506231 -109.513920 -21.320277 9.824629    -48.450674 177.536420  -0.125862  -34.026237
     -21.319287 9.812526    -21.134233 -33.467558  -0.449552  -129.744970 -47.208817 -171.288920
     -49.241687 178.343260  -0.451585  -129.757800 -21.442041 -47.033688  -21.303115 9.497766
     -0.127308  -34.013638  -46.761031 -171.261210 -21.303995 9.546849    -30.252143 -102.519870
2450 -30.549378 -107.785050 -21.343995 9.514049    -48.603381 177.104870  -0.124843  -34.121226
     -21.343304 9.509619    -21.112107 -33.621215  -0.450086  -130.274720 -47.199018 -172.013900
     -49.419155 176.729410  -0.452861  -130.288070 -21.415458 -47.999097  -21.330907 9.195973
     -0.127668  -34.121612  -46.738316 -171.816430 -21.333056 9.228721    -30.448376 -103.804310
2460 -30.442579 -107.012000 -21.369528 9.227810    -48.795065 176.507120  -0.126474  -34.231052
     -21.369093 9.202309    -21.090072 -33.826756  -0.450619  -130.814850 -47.141217 -172.640050
     -49.536644 176.315280  -0.453159  -130.818380 -21.385258 -48.866813  -21.360518 8.915686
     -0.128819  -34.225327  -46.730891 -172.554770 -21.357714 8.943931    -30.466804 -106.024310
2470 -30.177891 -106.777270 -21.394379 8.896802    -48.968898 177.309140  -0.126340  -34.361652
     -21.394150 8.892670    -21.073571 -33.912942  -0.451752  -131.376490 -47.054412 -173.373090
     -49.792180 177.555430  -0.454518  -131.377250 -21.355071 -49.473329  -21.382889 8.577085
     -0.128866  -34.353672  -46.732869 -173.006300 -21.386932 8.594550    -30.239488 -108.475840
2480 -29.820552 -107.376500 -21.419575 8.593872    -49.011476 178.315830  -0.126016  -34.515081
     -21.419207 8.569591    -21.086873 -34.050378  -0.453597  -131.949270 -46.958609 -173.979270
     -49.854760 179.592490  -0.454775  -131.945160 -21.313268 -49.941608  -21.409501 8.259054
     -0.128315  -34.506709  -46.637084 -173.338200 -21.414920 8.291150    -29.885696 -109.916420
2490 -29.596890 -108.646580 -21.444783 8.257254    -49.001236 -179.898640 -0.125446  -34.666891
     -21.444075 8.239468    -21.096293 -34.484197  -0.452786  -132.510550 -47.009955 -173.963260
     -49.890627 -179.130870 -0.453656  -132.492100 -21.301862 -50.190813  -21.434710 7.923904
     -0.128190  -34.644054  -46.673945 -174.046670 -21.436708 7.967999    -29.428486 -110.051060
2500 -29.483087 -110.287750 -21.471325 7.964240    -48.838228 -178.791320 -0.124100  -34.789175
     -21.471531 7.950628    -21.111384 -35.189276  -0.453308  -133.044880 -46.961201 -175.199480
     -49.683335 -178.111890 -0.452936  -133.029960 -21.282966 -50.493610  -21.460013 7.639936
     -0.127579  -34.758578  -46.753383 -174.433070 -21.466957 7.660770    -29.178569 -109.343600
2510 -29.525469 -112.424170 -21.498829 7.662706    -48.665944 -177.756730 -0.124564  -34.908059
     -21.502481 7.628981    -21.125885 -36.163526  -0.454036  -133.575870 -47.057735 -176.099530
     -49.416579 -178.176470 -0.453746  -133.556300 -21.287340 -50.799182  -21.489214 7.309764
     -0.127093  -34.881498  -46.792952 -174.619650 -21.493238 7.354710    -28.963966 -107.392160
2520 -29.559911 -115.389140 -21.525428 7.324068    -48.370465 -177.589350 -0.125393  -35.054718
     -21.531330 7.317808    -21.114817 -37.136962  -0.455499  -134.137580 -47.210807 -176.243560
     -49.130034 -178.092180 -0.454984  -134.116410 -21.281149 -50.646497  -21.515846 6.989978
     -0.127178  -35.026549  -46.906896 -175.289440 -21.523930 7.034956    -28.723208 -105.350720
2530 -29.630060 -117.750160 -21.556615 6.987200    -48.092166 -177.849830 -0.126221  -35.206719
     -21.557772 6.955587    -21.099657 -38.140481  -0.456578  -134.707390 -47.332659 -176.519930
     -48.784947 -178.225850 -0.455462  -134.688690 -21.287187 -50.634004  -21.546151 6.642792
     -0.127765  -35.184328  -47.000426 -175.497080 -21.552518 6.698082    -28.659556 -103.018890
2540 -29.845551 -119.838700 -21.588720 6.649756    -47.849513 -178.837700 -0.126274  -35.345518
     -21.592723 6.646755    -21.082092 -39.151492  -0.455986  -135.258160 -47.402072 -176.772020
     -48.566202 -179.102110 -0.456446  -135.246090 -21.317540 -50.672418  -21.575572 6.341261
     -0.127173  -35.328139  -47.150573 -175.631610 -21.579943 6.374902    -28.712359 -100.869270
2550 -30.186810 -121.226330 -21.619109 6.331627    -47.810482 179.919870  -0.125392  -35.448820
     -21.619897 6.313004    -21.080746 -40.117990  -0.457687  -135.794720 -47.524807 -176.943400
     -48.371148 179.226620  -0.457311  -135.780650 -21.328457 -51.039874  -21.605850 6.016480
     -0.126701  -35.445956  -47.270923 -175.597250 -21.610192 6.038572    -28.958252 -98.471716
2560 -30.460567 -121.440840 -21.652136 6.024822    -47.689445 178.512830  -0.125531  -35.561289
     -21.656353 6.019374    -21.066051 -40.983162  -0.458184  -136.319080 -47.621153 -176.795990
     -48.347880 177.516320  -0.459688  -136.300710 -21.363899 -51.582391  -21.641392 5.711285
     -0.127040  -35.559279  -47.369900 -175.062990 -21.646341 5.717820    -29.280155 -97.227351
2570 -30.647875 -121.484160 -21.689207 5.710150    -47.688582 176.864370  -0.125525  -35.706722
     -21.691541 5.678932    -21.054046 -41.520200  -0.459481  -136.881240 -47.644790 -176.502100
     -48.318365 175.732170  -0.461253  -136.865900 -21.380069 -51.934673  -21.676301 5.387428
     -0.127894  -35.698914  -47.431821 -175.181450 -21.681004 5.433063    -29.556434 -97.426549
2580 -30.669760 -119.944290 -21.726278 5.383633    -47.772631 175.670200  -0.125371  -35.847663
     -21.725711 5.356822    -21.065009 -41.862406  -0.459885  -137.450490 -47.575036 -176.048250
     -48.473757 174.325520  -0.461304  -137.436640 -21.413856 -52.419630  -21.712667 5.085010
     -0.128688  -35.847598  -47.377218 -174.491750 -21.712005 5.127435    -29.777996 -98.536314
2590 -30.615591 -118.254230 -21.760620 5.058365    -47.956055 175.009990  -0.125594  -35.991774
     -21.759098 5.049938    -21.094800 -42.048024  -0.458616  -138.011040 -47.609893 -175.504590
     -48.725361 174.021640  -0.461648  -137.994190 -21.470180 -53.159659  -21.742319 4.781190
     -0.128513  -35.985063  -47.360849 -174.611850 -21.746491 4.807815    -29.899599 -100.804570
2600 -30.537463 -116.553130 -21.794856 4.768707    -48.207498 175.157970  -0.124472  -36.109971
     -21.796581 4.729320    -21.119310 -42.477699  -0.458721  -138.545440 -47.534070 -175.368940
     -48.904560 173.671920  -0.461776  -138.526190 -21.519899 -54.129613  -21.775926 4.465700
     -0.128563  -36.097526  -47.416745 -174.145430 -21.778189 4.498204    -30.010498 -103.666730
2610 -30.290240 -116.017090 -21.832777 4.466280    -48.428472 175.867280  -0.124586  -36.216912
     -21.830372 4.445612    -21.138808 -42.811474  -0.460176  -139.078990 -47.467703 -175.512280
     -49.054337 174.490520  -0.463213  -139.065530 -21.555779 -55.050578  -21.809086 4.173204
     -0.130115  -36.205944  -47.370987 -174.059060 -21.812634 4.183153    -29.948930 -106.316550
2620 -30.047071 -115.631790 -21.870607 4.141669    -48.402108 177.060110  -0.125990  -36.353209
     -21.872656 4.136527    -21.136654 -43.136039  -0.461323  -139.651000 -47.281934 -175.405680
     -49.098200 175.405900  -0.465187  -139.624070 -21.566751 -55.720989  -21.846663 3.824334
     -0.130264  -36.343754  -47.265613 -173.968150 -21.848243 3.848041    -29.722986 -108.696480
2630 -29.760276 -115.912340 -21.908592 3.825315    -48.369471 178.147310  -0.125551  -36.500886
     -21.910056 3.817385    -21.153746 -43.521988  -0.463217  -140.221170 -47.143849 -175.825920
     -49.096130 176.827860  -0.464703  -140.190340 -21.551144 -56.279513  -21.887075 3.489688
     -0.129096  -36.485921  -47.172628 -174.625740 -21.888006 3.501381    -29.424357 -110.177330
2640 -29.575754 -116.743040 -21.947569 3.516703    -48.208473 179.245330  -0.126470  -36.654327
     -21.948504 3.511697    -21.147294 -44.053215  -0.463266  -140.786290 -47.156146 -176.606910
     -48.927691 177.525280  -0.464568  -140.755840 -21.542873 -56.819247  -21.927313 3.123071
     -0.128079  -36.631539  -47.021184 -174.976630 -21.932098 3.162713    -29.187717 -109.960810
2650 -29.614842 -118.026630 -21.985768 3.219139    -48.048012 179.200240  -0.125970  -36.775445
     -21.986192 3.219444    -21.120808 -44.808907  -0.463201  -141.319980 -47.087650 -177.607430
     -48.717717 177.457770  -0.464548  -141.297560 -21.499783 -57.598374  -21.967086 2.809915
     -0.126954  -36.753988  -46.951207 -175.451480 -21.970288 2.859498    -29.100884 -109.008810
2660 -29.779800 -119.810550 -22.027083 2.889571    -47.828942 178.938360  -0.127124  -36.901296
     -22.026691 2.879918    -21.075946 -45.654560  -0.464015  -141.862020 -47.010906 -178.241550
     -48.421177 176.551320  -0.466242  -141.836930 -21.436477 -58.026537  -22.010047 2.501444
     -0.126566  -36.881831  -46.964714 -176.460570 -22.013347 2.542866    -29.171005 -107.525240
2670 -29.976794 -121.546580 -22.069920 2.546127    -47.655895 177.943920  -0.129652  -37.052494
     -22.069198 2.548063    -20.996039 -46.303398  -0.465233  -142.428040 -46.966800 -178.277860
     -48.235878 176.302810  -0.468664  -142.408700 -21.372745 -58.547051  -22.058550 2.144663
     -0.128547  -37.025563  -46.881635 -177.090220 -22.057074 2.214331    -29.231618 -105.853530
2680 -30.213664 -122.846720 -22.111954 2.227074    -47.507065 176.924240  -0.128786  -37.193682
     -22.113798 2.228382    -20.931518 -46.751015  -0.465470  -142.996910 -46.907333 -179.036120
     -47.997690 174.634630  -0.468893  -142.984870 -21.313127 -58.880042  -22.100512 1.830007
     -0.128749  -37.177079  -46.822612 -178.281190 -22.100696 1.870248    -29.418153 -103.946620
2690 -30.489109 -123.257090 -22.162370 1.923473    -47.375431 175.107970  -0.127881  -37.327340
     -22.156121 1.912507    -20.866100 -47.213431  -0.465384  -143.563040 -46.899583 179.686430
     -47.948884 173.092380  -0.469770  -143.557550 -21.259145 -59.319353  -22.147656 1.501555
     -0.128062  -37.321832  -46.858002 -179.175510 -22.146077 1.561321    -29.719162 -102.160090
2700 -30.913867 -123.538620 -22.204833 1.641683    -47.463023 173.024980  -0.125499  -37.438680
     -22.202075 1.620206    -20.822537 -47.684841  -0.466058  -144.091560 -46.950918 179.029210
     -48.060341 171.067030  -0.470141  -144.097840 -21.202492 -59.961410  -22.188039 1.220539
     -0.126594  -37.431913  -47.003219 -179.687280 -22.190995 1.256891    -30.132018 -101.325420
2710 -31.282517 -123.690970 -22.250238 1.355014    -47.635889 171.861110  -0.124371  -37.541238
     -22.249266 1.327079    -20.791556 -48.161568  -0.467455  -144.630430 -46.972715 177.841340
     -48.091203 169.021050  -0.470915  -144.619750 -21.185731 -60.563191  -22.235591 0.943307
     -0.126567  -37.540837  -47.080340 179.676750  -22.238866 0.952849    -30.618006 -101.382190
2720 -31.405005 -123.188850 -22.295591 1.046239    -47.841432 170.668060  -0.123095  -37.678850
     -22.295135 1.025762    -20.772086 -48.494049  -0.468904  -145.188920 -47.090394 177.751020
     -48.249007 168.505680  -0.471950  -145.177420 -21.165778 -61.050096  -22.285474 0.625039
     -0.126858  -37.674428  -47.265285 179.635510  -22.287997 0.670709    -30.895161 -103.072560
2730 -31.306997 -122.112390 -22.340279 0.748048    -47.969059 170.769980  -0.121839  -37.834493
     -22.342900 0.712875    -20.812979 -48.772055  -0.469361  -145.763240 -47.228594 177.352520
     -48.508426 168.021480  -0.471256  -145.740010 -21.195471 -61.281351  -22.328599 0.359226
     -0.124842  -37.823299  -47.369895 179.310860  -22.331836 0.375971    -31.007386 -105.671730
2740 -31.120747 -121.487610 -22.385046 0.434550    -48.176167 171.099620  -0.122979  -37.988752
     -22.387843 0.406405    -20.859350 -49.287954  -0.468973  -146.327980 -47.318144 177.640500
     -48.630674 168.209130  -0.470797  -146.296560 -21.235411 -61.619708  -22.371729 0.019894
     -0.124578  -37.964850  -47.408548 179.648260  -22.373576 0.051850    -30.931813 -108.476770
2750 -30.974419 -121.287780 -22.431531 0.104668    -48.322429 172.311130  -0.123517  -38.104179
     -22.435074 0.090509    -20.919356 -50.019945  -0.467355  -146.862690 -47.456610 178.290840
     -48.795477 169.357940  -0.470015  -146.831900 -21.308013 -62.016581  -22.416909 -0.273527
     -0.125042  -38.081545  -47.487842 -179.987330 -22.425598 -0.241896   -30.810286 -110.891910
2760 -30.742047 -121.742940 -22.483729 -0.219483   -48.342574 173.991930  -0.125338  -38.216435
     -22.487143 -0.224630   -20.996471 -50.971227  -0.468893  -147.397240 -47.414386 178.422100
     -48.779556 170.461560  -0.470237  -147.376280 -21.362195 -62.331248  -22.470260 -0.594833
     -0.126284  -38.207075  -47.574460 -179.790270 -22.472856 -0.576039   -30.584096 -113.172650
2770 -30.461712 -122.656780 -22.537018 -0.542425   -48.199981 175.258270  -0.127786  -38.366708
     -22.539278 -0.549611   -21.053402 -51.945411  -0.469252  -147.966730 -47.430135 179.433000
     -48.670880 172.074580  -0.471712  -147.944330 -21.417713 -62.418282  -22.522323 -0.948332
     -0.128386  -38.353850  -47.546063 -179.682970 -22.525333 -0.922752   -30.213660 -113.978210
2780 -30.260738 -123.803230 -22.590995 -0.859538   -48.011408 176.109710  -0.128266  -38.510839
     -22.592107 -0.886224   -21.114052 -52.903414  -0.469337  -148.536720 -47.466146 179.943730
     -48.547855 173.853350  -0.472075  -148.516630 -21.463290 -62.497951  -22.581805 -1.291897
     -0.129505  -38.501613  -47.562385 -179.073280 -22.580520 -1.259234   -29.904023 -113.668600
2790 -30.170834 -125.010480 -22.648521 -1.200463   -47.769460 176.224500  -0.127353  -38.646277
     -22.646868 -1.191520   -21.128392 -53.948121  -0.469338  -149.103830 -47.472233 -179.546190
     -48.338216 174.517380  -0.473007  -149.092900 -21.501239 -62.803840  -22.637846 -1.619440
     -0.130337  -38.634730  -47.589530 -179.318950 -22.640066 -1.600551   -29.695488 -112.642200
2800 -30.287838 -126.934900 -22.704748 -1.492217   -47.551459 175.989730  -0.126128  -38.760722
     -22.703229 -1.541675   -21.111399 -55.104157  -0.470398  -149.641580 -47.457535 -179.912330
     -48.003168 174.026520  -0.474038  -149.630220 -21.507556 -63.191092  -22.698197 -1.935739
     -0.129895  -38.747168  -47.624594 -179.534340 -22.702791 -1.883547   -29.740053 -111.159860
2810 -30.510735 -128.869570 -22.762011 -1.793798   -47.488064 174.855040  -0.125235  -38.874415
     -22.758990 -1.826609   -21.086048 -56.061387  -0.471554  -150.180750 -47.456732 179.833170
     -47.796661 172.510480  -0.475899  -150.167050 -21.502310 -63.746093  -22.764007 -2.192872
     -0.130165  -38.856182  -47.673801 -178.911230 -22.766087 -2.173739   -29.898835 -109.990880
2820 -30.655747 -130.658640 -22.823646 -2.108424   -47.386010 173.338910  -0.124330  -39.022309
     -22.821944 -2.137623   -21.019830 -56.663586  -0.472078  -150.741290 -47.398410 179.807490
     -47.614321 170.512100  -0.476960  -150.729570 -21.493724 -64.261279  -22.820487 -2.456903
     -0.127967  -38.997752  -47.637671 -179.134800 -22.826792 -2.432708   -30.094365 -108.980560
2830 -30.706831 -131.225530 -22.886189 -2.411673   -47.459057 171.476840  -0.123344  -39.175627
     -22.885154 -2.428686   -20.992083 -57.060508  -0.472298  -151.319050 -47.402463 179.867210
     -47.764549 169.590130  -0.476677  -151.300760 -21.492704 -64.958921  -22.875076 -2.733237
     -0.126722  -39.158262  -47.638919 -179.362560 -22.880220 -2.684181   -30.280764 -108.903320
2840 -30.824854 -131.522340 -22.947860 -2.714380   -47.595098 170.787570  -0.122960  -39.321461
     -22.949200 -2.733137   -20.960568 -57.336868  -0.471965  -151.881770 -47.420988 179.628820
     -47.990519 167.850180  -0.476720  -151.867010 -21.496098 -65.877903  -22.934244 -3.039672
     -0.124001  -39.306613  -47.616518 -179.742520 -22.937115 -2.996657   -30.497295 -109.545580
2850 -30.876388 -131.559930 -23.013999 -2.976467   -47.860003 170.492160  -0.123279  -39.435979
     -23.014125 -3.002615   -20.927719 -57.600986  -0.471738  -152.426020 -47.391785 179.764060
     -48.151578 167.602080  -0.476973  -152.402970 -21.486545 -66.978681  -22.988946 -3.341000
     -0.123476  -39.418628  -47.588480 -179.647900 -22.992506 -3.283374   -30.744294 -111.582190
2860 -30.759290 -130.995630 -23.075008 -3.234446   -48.046671 170.172810  -0.123302  -39.552440
     -23.073415 -3.239896   -20.917446 -57.879472  -0.472817  -152.961690 -47.367274 179.560930
     -48.349482 166.955900  -0.478266  -152.943980 -21.472497 -68.158642  -23.051469 -3.614103
     -0.123173  -39.538082  -47.619589 179.877000  -23.053450 -3.567710   -30.800820 -114.341980
2870 -30.489616 -130.251320 -23.135444 -3.529234   -48.187939 170.713370  -0.125244  -39.689877
     -23.137557 -3.541237   -20.942383 -58.045383  -0.474336  -153.524370 -47.356485 179.688350
     -48.554875 167.473950  -0.478830  -153.512240 -21.473156 -69.028365  -23.108985 -3.923369
     -0.125408  -39.684577  -47.588123 179.770130  -23.109596 -3.878332   -30.556320 -117.264460
2880 -30.103821 -129.838750 -23.202239 -3.840212   -48.272750 171.761110  -0.126625  -39.840092
     -23.200235 -3.859662   -20.958367 -58.404890  -0.474423  -154.100110 -47.283968 -179.796080
     -48.606395 169.129190  -0.479849  -154.096860 -21.452797 -69.814948  -23.170670 -4.246670
     -0.127120  -39.833668  -47.541484 -179.998640 -23.174814 -4.211394   -30.146014 -119.637210
2890 -29.721008 -129.420460 -23.271542 -4.143399   -48.192397 172.816890  -0.126922  -39.979959
     -23.270641 -4.117680   -20.962018 -59.050817  -0.474739  -154.669310 -47.211036 -179.514330
     -48.556278 170.318010  -0.479938  -154.664780 -21.439915 -70.428750  -23.245596 -4.596964
     -0.127892  -39.972788  -47.423284 179.697790  -23.244772 -4.571101   -29.699433 -121.263900
2900 -29.445140 -130.148020 -23.336208 -4.418213   -48.105686 173.278740  -0.127115  -40.094417
     -23.334287 -4.399572   -20.958575 -59.850278  -0.475731  -155.209310 -47.148376 179.814180
     -48.400354 170.910300  -0.481157  -155.210840 -21.403938 -71.090056  -23.316351 -4.883330
     -0.128597  -40.087561  -47.419640 179.315290  -23.317364 -4.859542   -29.286388 -121.344120
2910 -29.250770 -131.252180 -23.407893 -4.643793   -47.967022 173.702180  -0.127889  -40.209945
     -23.404708 -4.699243   -20.925139 -60.750822  -0.477895  -155.756980 -47.064319 179.668980
     -48.248065 171.434870  -0.483693  -155.752370 -21.334358 -71.594361  -23.387678 -5.155932
     -0.129130  -40.202568  -47.421162 179.182920  -23.387475 -5.142451   -29.013920 -120.739350
2920 -29.123783 -132.711320 -23.478119 -4.964005   -47.790022 173.892080  -0.127774  -40.354062
     -23.473577 -4.973209   -20.904148 -61.444463  -0.479141  -156.322250 -47.018424 179.330160
     -47.954109 171.767870  -0.484519  -156.316190 -21.293614 -71.798462  -23.455422 -5.460650
     -0.130075  -40.337743  -47.343237 178.915660  -23.461873 -5.429586   -28.777307 -119.312150
2930 -29.110244 -134.181760 -23.543244 -5.259031   -47.491165 173.202510  -0.127412  -40.516632
     -23.545514 -5.292607   -20.874371 -62.183128  -0.479640  -156.899350 -47.038389 178.917230
     -47.723717 170.961180  -0.486271  -156.886350 -21.257376 -71.882352  -23.534092 -5.806483
     -0.128758  -40.496236  -47.319601 178.327990  -23.537455 -5.741994   -28.628546 -117.324370
2940 -29.264463 -135.911850 -23.619622 -5.551857   -47.328369 171.873120  -0.125877  -40.661361
     -23.613502 -5.583968   -20.816595 -62.800044  -0.479186  -157.461230 -47.103322 178.490020
     -47.515418 169.697970  -0.484770  -157.454320 -21.212599 -72.073733  -23.604535 -6.057070
     -0.127447  -40.646290  -47.413175 177.859040  -23.612336 -6.005254   -28.782129 -115.158540
2950 -29.560657 -138.000170 -23.686950 -5.796240   -47.237667 170.570620  -0.124520  -40.790785
     -23.684696 -5.834179   -20.779503 -63.601404  -0.478355  -157.999760 -47.214756 178.301160
     -47.397111 168.136440  -0.485115  -157.984800 -21.192254 -72.354446  -23.677131 -6.307404
     -0.125438  -40.767057  -47.502842 177.897230  -23.683755 -6.255819   -29.030578 -113.135700
2960 -29.901591 -139.700640 -23.757928 -6.089125   -47.256123 169.421130  -0.123316  -40.913467
     -23.762114 -6.125946   -20.749315 -64.231718  -0.478707  -158.532460 -47.173874 178.667190
     -47.359987 166.862910  -0.485263  -158.523980 -21.167597 -72.783160  -23.751148 -6.580897
     -0.125022  -40.890463  -47.475009 177.563940  -23.754000 -6.515108   -29.430863 -112.102650
2970 -30.123491 -141.127940 -23.830271 -6.398907   -47.276957 168.434880  -0.123333  -41.062007
     -23.833848 -6.431244   -20.748089 -64.724417  -0.477968  -159.099220 -47.302122 178.694830
     -47.383069 165.631160  -0.484334  -159.089760 -21.218209 -73.088810  -23.822884 -6.891224
     -0.124395  -41.044250  -47.571667 178.027990  -23.824627 -6.822188   -29.795059 -111.921570
2980 -30.334403 -141.374330 -23.908581 -6.771987   -47.314986 167.492650  -0.122364  -41.220811
     -23.910705 -6.754184   -20.771148 -65.021237  -0.475774  -159.670560 -47.392684 179.215040
     -47.517372 164.881200  -0.483795  -159.664240 -21.277667 -73.546599  -23.896251 -7.211009
     -0.123327  -41.197679  -47.558995 177.707460  -23.893453 -7.158281   -30.141101 -112.408170
2990 -30.427128 -141.005750 -23.991141 -7.067245   -47.516711 166.675110  -0.121701  -41.367359
     -23.995955 -7.057032   -20.826331 -65.426606  -0.475606  -160.254760 -47.471177 178.889310
     -47.688899 164.476410  -0.482097  -160.228290 -21.357393 -74.122522  -23.978445 -7.543115
     -0.123173  -41.350794  -47.603042 178.079210  -23.977267 -7.455049   -30.418397 -113.834260
3000 -30.419617 -140.426040 -24.077065 -7.343291   -47.721617 166.635630  -0.121079  -41.485281
     -24.076414 -7.323812   -20.886094 -65.943524  -0.475164  -160.794210 -47.464078 -179.728640
     -47.850430 164.259490  -0.481965  -160.777350 -21.440721 -75.104600  -24.060170 -7.808945
     -0.122295  -41.468771  -47.733308 177.971970  -24.061156 -7.744840   -30.561347 -116.660940
3010 -30.291508 -139.905990 -24.166657 -7.615027   -47.828694 166.003680  -0.122183  -41.603279
     -24.158284 -7.626498   -20.967989 -66.348773  -0.475822  -161.329470 -47.347675 -179.937990
     -47.856407 164.565630  -0.483692  -161.316490 -21.520846 -76.085177  -24.143136 -8.088882
     -0.123121  -41.592313  -47.782804 178.531260  -24.148236 -8.065385   -30.466626 -119.536320
3020 -29.946321 -139.184870 -24.254716 -7.890675   -47.953952 166.418440  -0.122832  -41.743624
     -24.248264 -7.915576   -21.066376 -66.656937  -0.476832  -161.894570 -47.373765 -179.588620
     -48.010338 164.446610  -0.485552  -161.886550 -21.596305 -77.112537  -24.232677 -8.362711
     -0.125384  -41.726967  -47.739586 178.258250  -24.238949 -8.364066   -30.156375 -121.557980
3030 -29.597780 -138.916850 -24.347055 -8.152009   -48.084776 167.028900  -0.122272  -41.897817
     -24.339181 -8.216648   -21.144775 -66.947141  -0.476911  -162.472220 -47.358100 -179.826550
     -48.077801 165.025340  -0.486462  -162.461040 -21.682692 -78.050872  -24.319658 -8.654325
     -0.125856  -41.878194  -47.656979 178.250210  -24.330164 -8.649035   -29.749975 -122.734310
3040 -29.279783 -139.168360 -24.441455 -8.434087   -48.157691 167.945970  -0.122516  -42.036325
     -24.435202 -8.508677   -21.206074 -67.392219  -0.477420  -163.028630 -47.396162 -179.198830
     -48.176344 165.700330  -0.486312  -163.022170 -21.713563 -79.021612  -24.412952 -8.916160
     -0.125098  -42.022080  -47.656113 179.224450  -24.418056 -8.887321   -29.370904 -123.151150
3050 -29.078921 -140.571060 -24.529640 -8.659380   -48.175122 168.845400  -0.123772  -42.161705
     -24.527368 -8.729300   -21.229701 -68.026818  -0.478176  -163.566690 -47.337248 -179.308540
     -48.157967 166.701400  -0.485303  -163.563280 -21.720279 -80.074537  -24.503835 -9.195974
     -0.126181  -42.139537  -47.611718 179.221870  -24.506836 -9.170028   -29.109099 -122.739850
3060 -28.954575 -142.312550 -24.619201 -8.907857   -48.017618 169.321630  -0.123599  -42.277672
     -24.621713 -8.947686   -21.247116 -68.517439  -0.477543  -164.104800 -47.236548 -179.489430
     -47.977234 167.150250  -0.485475  -164.100650 -21.723679 -81.026536  -24.597065 -9.477193
     -0.125546  -42.258948  -47.588273 179.319070  -24.600153 -9.444738   -28.965983 -121.737150
3070 -28.880691 -143.764800 -24.707278 -9.177490   -47.815333 169.313680  -0.124433  -42.431717
     -24.715233 -9.221542   -21.233249 -68.892382  -0.477064  -164.678610 -47.206878 -179.197990
     -47.869648 167.081650  -0.485058  -164.678660 -21.715301 -81.696685  -24.688788 -9.758247
     -0.124643  -42.406265  -47.556555 179.279320  -24.696722 -9.699026   -28.848607 -120.175760
3080 -28.904912 -145.664180 -24.800440 -9.449005   -47.646936 168.306560  -0.123152  -42.584138
     -24.802522 -9.494853   -21.234805 -69.311823  -0.477479  -165.259220 -47.164107 -178.526660
     -47.733738 166.617550  -0.484971  -165.258990 -21.670836 -82.466504  -24.786589 -10.017519
     -0.124537  -42.566146  -47.450949 179.151420  -24.789909 -9.984247   -28.889908 -118.516380
3090 -29.007108 -146.956690 -24.899409 -9.770122   -47.617226 166.759570  -0.122290  -42.731979
     -24.901630 -9.754620   -21.222049 -69.735437  -0.476620  -165.834710 -47.169324 -178.596180
     -47.694191 165.051270  -0.483314  -165.826590 -21.656853 -83.208472  -24.887018 -10.336190
     -0.123721  -42.715176  -47.424673 178.954820  -24.891704 -10.274257  -29.070127 -116.897360
3100 -29.215256 -148.267810 -25.003676 -10.049846  -47.633103 165.555920  -0.122190  -42.850740
     -24.997088 -10.033228  -21.222277 -70.086933  -0.476254  -166.385290 -47.113219 -178.683680
     -47.658043 164.030500  -0.483862  -166.377640 -21.631595 -83.993320  -24.985673 -10.568994
     -0.121818  -42.840138  -47.427747 178.537120  -24.984926 -10.549503  -29.399309 -116.215540
3110 -29.473530 -148.588310 -25.109955 -10.315810  -47.704414 164.217800  -0.121346  -42.976835
     -25.103073 -10.296384  -21.218409 -70.611825  -0.479272  -166.928440 -47.102390 -178.660670
     -47.693460 162.864190  -0.486233  -166.928800 -21.595891 -84.740903  -25.087347 -10.808848
     -0.122234  -42.969324  -47.435425 178.768760  -25.092515 -10.795537  -29.747426 -116.355750
3120 -29.638696 -147.966960 -25.215269 -10.560290  -47.786835 162.922680  -0.121448  -43.137303
     -25.212187 -10.556310  -21.265371 -70.998352  -0.480279  -167.506670 -47.106012 -178.334960
     -47.834557 162.093780  -0.486134  -167.490350 -21.603156 -85.190419  -25.189247 -11.088667
     -0.122601  -43.118914  -47.361427 179.062540  -25.194802 -11.047600  -30.036176 -117.507400
3130 -29.798031 -146.719660 -25.325578 -10.808919  -47.996265 162.474800  -0.121471  -43.294655
     -25.321567 -10.860893  -21.315556 -71.389449  -0.480067  -168.077570 -47.074745 -178.654250
     -47.925398 161.087320  -0.486685  -168.070380 -21.633642 -85.648230  -25.291719 -11.349020
     -0.121976  -43.278260  -47.344544 178.757200  -25.297926 -11.330417  -30.250863 -119.493700
3140 -29.864883 -144.790840 -25.441235 -11.056030  -48.170518 162.838180  -0.121149  -43.447664
     -25.438533 -11.100302  -21.421605 -71.749794  -0.478875  -168.643400 -47.045763 -178.165470
     -48.210138 161.121320  -0.485772  -168.630910 -21.714902 -86.079888  -25.396131 -11.633359
     -0.120916  -43.426028  -47.276528 179.425940  -25.405067 -11.606880  -30.271907 -122.228290
3150 -29.799737 -143.220280 -25.548989 -11.229207  -48.339661 163.810640  -0.120442  -43.574450
     -25.545534 -11.285038  -21.486657 -72.589043  -0.479593  -169.176720 -46.976349 -177.931670
     -48.263858 162.361700  -0.486122  -169.170880 -21.764440 -86.558456  -25.500315 -11.929906
     -0.121554  -43.553747  -47.195188 179.195170  -25.514814 -11.877874  -30.264981 -125.261090
3160 -29.713917 -142.214020 -25.657741 -11.445854  -48.316572 164.898590  -0.122000  -43.680919
     -25.656356 -11.509002  -21.572885 -73.310264  -0.479460  -169.712550 -46.920182 -178.891940
     -48.292262 163.596290  -0.484271  -169.716360 -21.827007 -86.876349  -25.619400 -12.250128
     -0.123467  -43.673060  -47.145938 178.869260  -25.625089 -12.222528  -30.084302 -128.149090
3170 -29.525567 -141.137280 -25.771865 -11.734857  -48.231669 165.304680  -0.121600  -43.835300
     -25.770889 -11.757137  -21.654713 -74.165811  -0.478205  -170.271150 -47.012195 -178.905950
     -48.285134 164.104030  -0.484104  -170.281910 -21.904988 -87.108087  -25.750728 -12.545707
     -0.123184  -43.815727  -47.174877 178.346290  -25.756640 -12.482264  -29.852250 -129.916370
3180 -29.368184 -140.679780 -25.896518 -11.996887  -48.108298 165.663920  -0.121404  -43.990258
     -25.897083 -12.027380  -21.691312 -74.884145  -0.478000  -170.855030 -46.972170 -179.108930
     -48.160091 164.467350  -0.484015  -170.865440 -21.973237 -87.473342  -25.880870 -12.770090
     -0.122417  -43.967289  -47.103719 178.204970  -25.886741 -12.721813  -29.597575 -130.874230
3190 -29.264955 -140.659800 -26.008178 -12.258252  -48.107148 165.053780  -0.120336  -44.139860
     -26.014183 -12.262012  -21.767378 -75.866955  -0.477534  -171.414210 -47.026769 -179.377080
     -48.160896 164.404550  -0.482897  -171.441050 -22.006677 -88.010280  -26.002340 -12.986193
     -0.121588  -44.123839  -47.158520 178.290740  -26.010646 -12.933629  -29.431886 -130.814140
3200 -29.240505 -141.626090 -26.134616 -12.474135  -48.032010 164.931050  -0.119166  -44.262728
     -26.134459 -12.478665  -21.754429 -76.790992  -0.475927  -171.966110 -47.064613 -179.341400
     -48.030945 163.923820  -0.483107  -171.985240 -22.049542 -88.483099  -26.126937 -13.208332
     -0.120972  -44.240792  -47.205707 177.989590  -26.132361 -13.161682  -29.422863 -130.547160
3210 -29.284317 -142.652570 -26.260913 -12.704196  -48.013818 164.487040  -0.119610  -44.388318
     -26.265288 -12.737838  -21.761903 -77.598811  -0.476254  -172.517150 -47.123124 -178.960580
     -48.026485 163.433350  -0.483497  -172.536620 -22.044406 -89.099388  -26.253187 -13.457787
     -0.120938  -44.375593  -47.233130 177.792450  -26.259997 -13.392054  -29.496134 -129.709210
3220 -29.422773 -143.602480 -26.400784 -12.979057  -48.046097 163.332650  -0.119589  -44.533387
     -26.397026 -12.974767  -21.786930 -78.249614  -0.477139  -173.100370 -47.060167 -178.990880
     -48.011485 163.044650  -0.484596  -173.109560 -22.045345 -89.612744  -26.386532 -13.701349
     -0.121224  -44.522707  -47.258503 178.106620  -26.388454 -13.653099  -29.645223 -128.778390
3230 -29.662745 -144.201150 -26.540419 -13.188543  -47.996055 163.122850  -0.119003  -44.692858
     -26.532528 -13.232591  -21.819275 -78.807455  -0.478494  -173.684870 -47.065518 -178.989680
     -48.034920 162.059750  -0.484263  -173.687350 -22.087225 -90.218920  -26.518719 -13.919547
     -0.121283  -44.681349  -47.153217 177.988720  -26.523365 -13.897830  -29.894559 -127.651730
3240 -29.868841 -144.510160 -26.676718 -13.416357  -48.116009 162.407820  -0.117897  -44.845377
     -26.671213 -13.464849  -21.889682 -79.197835  -0.478689  -174.253940 -47.143980 -179.725380
     -48.152805 161.732720  -0.484668  -174.258190 -22.127812 -90.885280  -26.656300 -14.164094
     -0.118946  -44.835309  -47.182973 177.524190  -26.657765 -14.128230  -30.202135 -126.937690
3250 -30.091237 -145.094080 -26.821296 -13.584487  -48.267570 162.049670  -0.117060  -44.972876
     -26.816114 -13.650699  -21.945180 -79.628678  -0.479934  -174.797990 -47.204042 -179.591320
     -48.295349 161.347900  -0.484168  -174.798640 -22.162409 -91.787641  -26.792428 -14.400154
     -0.118901  -44.963703  -47.274615 177.562940  -26.801261 -14.380898  -30.488610 -127.391620
3260 -30.254017 -145.097220 -26.967840 -13.760476  -48.353279 161.178030  -0.117307  -45.103878
     -26.959997 -13.834656  -22.025507 -80.011249  -0.481382  -175.338530 -47.246928 -179.408130
     -48.325438 160.671390  -0.484043  -175.347980 -22.220218 -92.493603  -26.940654 -14.650920
     -0.118934  -45.095798  -47.386830 177.335040  -26.957217 -14.623758  -30.687066 -128.554580
3270 -30.259265 -144.380480 -27.117576 -14.003313  -48.568715 161.433180  -0.117696  -45.253231
     -27.109651 -14.057561  -22.118651 -80.376655  -0.481403  -175.902810 -47.415042 -178.991100
     -48.533616 160.321130  -0.484136  -175.912180 -22.302712 -93.202899  -27.094465 -14.864975
     -0.120067  -45.243677  -47.454310 178.261480  -27.103374 -14.836871  -30.733489 -130.238850
3280 -30.090526 -143.480740 -27.267886 -14.173817  -48.753547 161.960810  -0.117327  -45.417249
     -27.266800 -14.238348  -22.235717 -80.779668  -0.479034  -176.471770 -47.437719 -178.478240
     -48.704680 161.448110  -0.483139  -176.492160 -22.404925 -93.944851  -27.249622 -15.108053
     -0.119534  -45.403491  -47.423380 178.882740  -27.263523 -15.039003  -30.585383 -132.175940
3290 -29.881397 -142.664180 -27.426208 -14.361902  -48.801590 162.496650  -0.117359  -45.567414
     -27.427027 -14.449035  -22.338757 -81.372212  -0.476224  -177.034920 -47.475251 -177.525600
     -48.828669 161.938860  -0.481248  -177.060720 -22.501398 -94.720359  -27.414036 -15.290860
     -0.120205  -45.544855  -47.479718 179.597920  -27.423348 -15.234131  -30.295745 -134.267840
3300 -29.545905 -142.507880 -27.586367 -14.510260  -48.878671 163.175240  -0.117251  -45.685953
     -27.587239 -14.604955  -22.430632 -82.090715  -0.474980  -177.589070 -47.363818 -176.860080
     -48.805336 162.662920  -0.480721  -177.611090 -22.544362 -95.560174  -27.578668 -15.412511
     -0.119744  -45.663165  -47.376711 -179.947470 -27.580705 -15.369224  -29.890105 -135.710000
3310 -29.155644 -142.507410 -27.757595 -14.658666  -48.830548 163.650060  -0.118433  -45.807590
     -27.758883 -14.690347  -22.491476 -82.774519  -0.474794  -178.145430 -47.270483 -176.534010
     -48.762798 163.648870  -0.481169  -178.153300 -22.573297 -96.277330  -27.742824 -15.558513
     -0.120888  -45.780231  -47.295006 -179.756920 -27.752756 -15.544351  -29.492274 -136.605110
3320 -28.758353 -142.410610 -27.920390 -14.790409  -48.667325 164.090890  -0.118874  -45.944093
     -27.924044 -14.803996  -22.549174 -83.635268  -0.477214  -178.728710 -47.226026 -176.107610
     -48.668839 163.697110  -0.482775  -178.738190 -22.580053 -96.617364  -27.918284 -15.665067
     -0.121742  -45.928458  -47.176142 -179.555750 -27.925166 -15.700914  -29.046148 -136.046330
3330 -28.534197 -142.558990 -28.089971 -14.975181  -48.603640 164.371530  -0.119190  -46.093924
     -28.089105 -14.946445  -22.582721 -84.405629  -0.478246  -179.317300 -47.099227 -176.731180
     -48.564244 164.374730  -0.484819  -179.323020 -22.581919 -97.100264  -28.080780 -15.768411
     -0.121646  -46.075701  -47.124415 -179.530880 -28.089378 -15.819503  -28.682046 -135.366600
3340 -28.355318 -143.100230 -28.270485 -15.097335  -48.451822 164.155840  -0.119322  -46.240782
     -28.266358 -15.099177  -22.589704 -85.243274  -0.479946  -179.894610 -47.106465 -177.040820
     -48.540995 164.333450  -0.485152  -179.888390 -22.547619 -97.468134  -28.252507 -15.949981
     -0.121272  -46.224276  -47.070372 -179.731690 -28.267387 -15.980802  -28.518157 -134.069530
3350 -28.347073 -143.878650 -28.447968 -15.190432  -48.411032 163.735600  -0.118361  -46.370561
     -28.443701 -15.252442  -22.537562 -86.245591  -0.483274  179.567800  -47.092766 -177.093080
     -48.415997 163.784890  -0.486689  179.567850  -22.463976 -97.886972  -28.426578 -16.105294
     -0.120961  -46.347845  -47.061732 -179.859450 -28.450390 -16.094118  -28.463764 -132.957200
3360 -28.408457 -144.850760 -28.640319 -15.387676  -48.383210 163.200960  -0.118760  -46.506219
     -28.628272 -15.432286  -22.480416 -87.036911  -0.484969  179.034850  -47.114912 -177.462890
     -48.358264 163.145200  -0.488226  179.023460  -22.405847 -98.026480  -28.614849 -16.245873
     -0.121566  -46.480586  -47.097183 -179.791040 -28.631904 -16.217335  -28.537862 -131.379220
3370 -28.599452 -145.702620 -28.826623 -15.491432  -48.380346 162.530130  -0.119542  -46.667121
     -28.818364 -15.565285  -22.456503 -87.563208  -0.484062  178.466340  -47.179850 -177.661140
     -48.385339 162.388690  -0.489379  178.449980  -22.424423 -98.167809  -28.807530 -16.383312
     -0.121515  -46.641470  -47.141372 -179.353700 -28.817895 -16.381455  -28.753011 -130.039740
3380 -28.843591 -146.089020 -29.026390 -15.593427  -48.381992 162.062390  -0.119297  -46.835341
     -29.024993 -15.646084  -22.483956 -87.967737  -0.483791  177.900470  -47.175808 -176.851560
     -48.521296 162.159710  -0.487532  177.875480  -22.440089 -98.575837  -28.995689 -16.520918
     -0.121204  -46.802740  -47.067882 -179.020360 -29.010325 -16.474379  -29.055572 -129.054800
3390 -29.092960 -146.950840 -29.237895 -15.669740  -48.531241 162.593480  -0.119299  -46.993262
     -29.243847 -15.747284  -22.529735 -88.196304  -0.481753  177.328060  -47.110682 -176.275880
     -48.557401 162.065780  -0.485453  177.299800  -22.542088 -98.984081  -29.194082 -16.727439
     -0.119975  -46.961825  -47.001627 -179.025850 -29.205443 -16.616946  -29.331384 -128.585710
3400 -29.219711 -147.729800 -29.445464 -15.727080  -48.522238 162.591210  -0.118990  -47.118342
     -29.450843 -15.733386  -22.666204 -88.534287  -0.479545  176.775970  -47.122289 -176.847860
     -48.540048 162.528860  -0.483746  176.748360  -22.678393 -99.727698  -29.404730 -16.895166
     -0.120417  -47.088529  -46.961206 -179.048960 -29.415205 -16.873940  -29.585863 -129.432610
3410 -29.241946 -147.927770 -29.667826 -15.705538  -48.548540 162.691120  -0.119920  -47.240668
     -29.677462 -15.709481  -22.838488 -88.635654  -0.478839  176.220880  -47.099929 -176.737190
     -48.555076 163.019960  -0.482396  176.195670  -22.834575 -100.438530 -29.639051 -17.059736
     -0.121443  -47.214705  -46.998654 -179.239940 -29.645061 -17.048820  -29.746309 -130.534360
3420 -29.183667 -147.484890 -29.885841 -15.686064  -48.500802 163.016710  -0.118941  -47.385265
     -29.890503 -15.693272  -23.064282 -88.773271  -0.479167  175.639670  -47.137830 -176.635350
     -48.534487 163.420150  -0.482901  175.616100  -23.031394 -101.529530 -29.880929 -17.147392
     -0.122064  -47.368585  -47.033456 -178.989400 -29.894840 -17.121981  -29.762663 -131.966830
3430 -29.028181 -146.425600 -30.108734 -15.741907  -48.395775 163.241800  -0.119688  -47.539047
     -30.112681 -15.724057  -23.325010 -89.055734  -0.480339  175.055730  -47.130134 -176.077000
     -48.507201 163.360540  -0.483035  175.031040  -23.237623 -102.485080 -30.134845 -17.137859
     -0.121710  -47.523020  -47.040235 -178.521770 -30.142938 -17.079068  -29.650951 -133.174360
3440 -28.806607 -145.341050 -30.350820 -15.680550  -48.462226 163.284680  -0.118804  -47.679192
     -30.350079 -15.705698  -23.571013 -89.391238  -0.479477  174.480780  -47.021576 -176.260940
     -48.524484 163.539920  -0.482590  174.461360  -23.471580 -103.646870 -30.374700 -17.087404
     -0.120990  -47.660908  -46.904451 -178.384610 -30.381788 -17.034104  -29.411773 -134.237840
3450 -28.572699 -144.611120 -30.583021 -15.643695  -48.379765 163.804370  -0.117946  -47.799739
     -30.575501 -15.622125  -23.770901 -90.084031  -0.480596  173.947800  -47.012776 -175.608740
     -48.391340 164.106060  -0.483023  173.920200  -23.568582 -104.894680 -30.629520 -16.977165
     -0.120202  -47.786141  -46.927384 -177.481650 -30.639880 -16.935438  -29.155004 -134.735140
3460 -28.368248 -143.925240 -30.829598 -15.579422  -48.239007 163.185230  -0.118219  -47.924665
     -30.829184 -15.678025  -23.945175 -90.776538  -0.481475  173.403840  -46.846587 -175.328110
     -48.236203 163.438670  -0.484036  173.375860  -23.690696 -105.666060 -30.876108 -16.797400
     -0.119716  -47.913316  -46.769835 -177.583410 -30.883216 -16.758253  -28.873679 -134.878280
3470 -28.264423 -143.460890 -31.086729 -15.565405  -48.091494 162.632430  -0.118193  -48.075382
     -31.078670 -15.618354  -24.045928 -91.550880  -0.481827  172.834510  -46.771930 -175.800330
     -48.184504 162.900470  -0.483548  172.815120  -23.787858 -106.344210 -31.120269 -16.718197
     -0.120309  -48.067623  -46.689348 -177.622350 -31.134737 -16.711495  -28.716517 -134.277720
3480 -28.280075 -143.210650 -31.345933 -15.477464  -48.146093 161.452090  -0.118112  -48.239745
     -31.339420 -15.527777  -24.133522 -92.412993  -0.481417  172.264900  -46.741523 -176.621870
     -48.154720 161.590270  -0.482756  172.239130  -23.802979 -106.961240 -31.374770 -16.638846
     -0.119673  -48.230033  -46.564030 -178.148180 -31.388579 -16.674315  -28.572474 -133.214970
3490 -28.456585 -143.767170 -31.636124 -15.404993  -48.118199 161.145780  -0.116811  -48.397092
     -31.634311 -15.468699  -24.171249 -93.278849  -0.481095  171.688730  -46.697591 -176.701450
     -48.180119 161.133960  -0.482404  171.666820  -23.810030 -107.352070 -31.650025 -16.648536
     -0.118638  -48.381645  -46.517859 -178.574010 -31.664914 -16.603879  -28.665857 -132.014800
3500 -28.634425 -144.487710 -31.919834 -15.247614  -47.996222 161.270150  -0.115286  -48.528222
     -31.914608 -15.308375  -24.137133 -93.987019  -0.480929  171.146390  -46.710185 -177.206310
     -48.032660 161.180100  -0.482850  171.122890  -23.802223 -107.858400 -31.949523 -16.620444
     -0.117927  -48.514954  -46.570515 -178.622660 -31.969860 -16.645662  -28.822883 -130.840810
3510 -28.909471 -145.391930 -32.212859 -15.203562  -47.857803 159.678330  -0.115884  -48.662674
     -32.219555 -15.199408  -24.161711 -94.627007  -0.481232  170.608940  -46.688136 -177.153730
     -47.874046 159.702110  -0.481928  170.584630  -23.789861 -108.300730 -32.261720 -16.485996
     -0.116902  -48.644137  -46.483956 -178.459340 -32.270570 -16.440534  -29.107759 -129.978460
3520 -29.155019 -145.710080 -32.537839 -15.059725  -47.817919 158.111680  -0.115480  -48.825034
     -32.530526 -15.063727  -24.165463 -94.813870  -0.480210  170.034160  -46.662891 -177.639610
     -47.891897 158.152300  -0.481996  170.015220  -23.786013 -108.855260 -32.572327 -16.268910
     -0.117210  -48.798672  -46.434838 -178.470230 -32.595616 -16.210350  -29.395792 -129.081970
3530 -29.399915 -145.770160 -32.889756 -14.882424  -47.937437 156.810580  -0.116770  -48.988654
     -32.887606 -14.907957  -24.210013 -94.739093  -0.479848  169.450300  -46.611633 -178.103000
     -48.029414 156.907580  -0.480386  169.427160  -23.826112 -109.753710 -32.906226 -16.102999
     -0.116165  -48.962687  -46.413520 -179.228630 -32.914222 -16.095422  -29.772459 -129.398360
3540 -29.662854 -145.437140 -33.262216 -14.535883  -48.060916 156.319980  -0.116307  -49.142375
     -33.260986 -14.583960  -24.288904 -94.570571  -0.478532  168.868030  -46.574050 -178.319840
     -48.173206 156.293360  -0.478696  168.843720  -23.864132 -110.532470 -33.240608 -15.911249
     -0.116348  -49.107189  -46.383671 -179.576780 -33.253747 -15.778858  -30.075070 -130.139030
3550 -29.821355 -144.234630 -33.632122 -14.046651  -48.190111 155.838040  -0.116510  -49.269020
     -33.626967 -14.052479  -24.379541 -94.467949  -0.479109  168.312860  -46.562769 -179.140280
     -48.305622 156.113090  -0.479535  168.293330  -23.933666 -111.710470 -33.602795 -15.608612
     -0.114883  -49.232818  -46.404669 -179.784060 -33.620404 -15.628285  -30.330555 -132.402610
3560 -29.751701 -142.718750 -34.016085 -13.560565  -48.295069 155.080890  -0.114764  -49.391932
     -34.008198 -13.507381  -24.474269 -94.084336  -0.480712  167.757270  -46.626575 -179.799370
     -48.385342 155.945180  -0.480242  167.736400  -23.996133 -112.919320 -33.995059 -15.203393
     -0.114935  -49.366401  -46.461231 179.605850  -34.008151 -15.253375  -30.432248 -135.230910
3570 -29.646508 -140.589120 -34.420455 -12.889475  -48.401108 155.856520  -0.113854  -49.541232
     -34.427409 -12.894120  -24.597344 -93.785798  -0.482529  167.187290  -46.606914 -179.789940
     -48.477324 155.973580  -0.481729  167.166700  -24.095464 -114.064810 -34.411018 -14.761316
     -0.115417  -49.525595  -46.451114 179.351010  -34.427795 -14.804204  -30.322705 -137.767810
3580 -29.477079 -138.592510 -34.838619 -12.167393  -48.394394 155.928060  -0.112559  -49.711619
     -34.829157 -12.155615  -24.776334 -93.497737  -0.483282  166.609700  -46.667110 179.650210
     -48.506840 156.054940  -0.481567  166.586840  -24.222483 -115.168610 -34.830564 -14.224063
     -0.115010  -49.694108  -46.499636 179.193480  -34.858571 -14.231670  -30.171060 -140.728360
3590 -29.266765 -136.993390 -35.255698 -11.369519  -48.394337 156.295140  -0.110626  -49.874309
     -35.242101 -11.420553  -24.981114 -93.762812  -0.483244  166.046690  -46.677251 179.661620
     -48.458291 156.138190  -0.481489  166.012700  -24.323357 -115.976170 -35.273351 -13.554445
     -0.114041  -49.848700  -46.534852 179.116730  -35.293211 -13.558322  -29.833870 -142.399230
3600 -29.019846 -136.173260 -35.709892 -10.466934  -48.442171 156.374820  -0.110834  -50.023140
     -35.693176 -10.402710  -25.171167 -94.310439  -0.480133  165.505680  -46.665153 179.538870
     -48.505830 155.840790  -0.480881  165.470730  -24.457790 -116.506130 -35.744110 -12.733822
     -0.113287  -49.995583  -46.535092 178.963720  -35.770254 -12.660339  -29.555665 -143.692610
3610 -28.905182 -135.687560 -36.198694 -9.421477   -48.422198 156.000900  -0.112763  -50.168248
     -36.181846 -9.541876   -25.348662 -95.206071  -0.479585  164.967080  -46.647220 179.662760
     -48.501445 155.912500  -0.480341  164.922650  -24.518923 -116.811370 -36.252869 -11.749105
     -0.114877  -50.133569  -46.515577 179.221970  -36.262294 -11.713606  -29.309374 -144.172660
3620 -28.767832 -136.147920 -36.704270 -8.235056   -48.495463 155.953800  -0.115745  -50.328264
     -36.703234 -8.222179   -25.547950 -96.610010  -0.477943  164.385580  -46.654650 179.481610
     -48.522641 155.807480  -0.480261  164.345390  -24.617353 -116.862110 -36.779261 -10.659671
     -0.117688  -50.298556  -46.466797 179.515480  -36.805086 -10.592180  -29.053159 -143.858410
3630 -28.694677 -137.046270 -37.237524 -6.813598   -48.466380 155.325830  -0.118371  -50.483476
     -37.250049 -6.790779   -25.712158 -98.250420  -0.477751  163.793630  -46.616844 179.441540
     -48.503701 155.349380  -0.480376  163.759380  -24.740581 -116.629000 -37.331537 -9.237077
     -0.118607  -50.460443  -46.461099 179.042430  -37.345407 -9.255054   -28.925494 -142.720120
3640 -28.642356 -138.100930 -37.842020 -4.961589   -48.553127 155.201950  -0.120751  -50.622494
     -37.844421 -5.130402   -25.843129 -99.928487  -0.478280  163.203540  -46.571667 179.069860
     -48.657105 155.208120  -0.480546  163.175830  -24.813625 -116.385360 -37.883788 -7.637439
     -0.120574  -50.606049  -46.426862 178.813260  -37.895755 -7.715524   -28.883128 -141.642140
3650 -28.679474 -139.404220 -38.414697 -2.486760   -48.621146 156.121490  -0.120379  -50.730716
     -38.438537 -2.465810   -25.991723 -101.741730 -0.479659  162.656850  -46.549748 178.511030
     -48.717611 156.221400  -0.480553  162.623450  -24.920801 -116.433130 -38.489299 -5.939473
     -0.120398  -50.727799  -46.351851 178.357990  -38.520673 -5.905367   -28.909352 -140.224790
3660 -28.686541 -140.708200 -38.987142 0.041849    -48.562112 157.151810  -0.120202  -50.848441
     -38.998167 0.116666    -26.069947 -102.734900 -0.482496  162.105080  -46.638331 177.887490
     -48.593321 156.752720  -0.480942  162.078890  -25.031467 -116.516460 -39.137836 -3.837228
     -0.120365  -50.835050  -46.444983 177.752020  -39.149136 -3.824305   -28.841415 -139.468530
3670 -28.720822 -141.949150 -39.566513 2.814028    -48.376690 157.232430  -0.118012  -50.992716
     -39.547298 2.975344    -26.215772 -103.684840 -0.484135  161.544170  -46.606775 177.746490
     -48.383309 157.083140  -0.481356  161.508850  -25.190989 -116.926180 -39.865917 -1.174049
     -0.120108  -50.976470  -46.558231 177.891150  -39.864877 -1.168310   -28.955246 -138.330910
3680 -28.725236 -141.933990 -40.178990 6.063022    -48.218319 156.986400  -0.115003  -51.157956
     -40.179525 6.097333    -26.375334 -103.673460 -0.484721  160.968990  -46.626632 177.973060
     -48.221497 156.817060  -0.481110  160.935760  -25.408028 -117.587460 -40.572487 2.180301
     -0.117789  -51.127902  -46.497059 178.156030  -40.598508 2.126795    -28.965980 -137.572290
3690 -28.731574 -141.629700 -40.838744 9.949740    -48.048934 156.315510  -0.113118  -51.322727
     -40.834131 9.968984    -26.549186 -103.490370 -0.484516  160.409560  -46.597417 177.620140
     -48.145981 156.245710  -0.479167  160.370310  -25.621348 -118.553570 -41.293496 6.155352
     -0.116124  -51.290722  -46.453940 177.802280  -41.347440 5.982489    -29.021420 -137.503920
3700 -28.661683 -141.468270 -41.470177 14.532880   -47.927340 155.707480  -0.112570  -51.461751
     -41.457770 14.571057   -26.705795 -102.922990 -0.483846  159.869770  -46.517078 177.352970
     -48.010450 155.845520  -0.478657  159.827060  -25.778552 -120.031160 -42.064292 10.772054
     -0.114823  -51.429291  -46.442192 178.011300  -42.079380 10.771020   -29.017629 -138.168200
3710 -28.538919 -140.581290 -42.086496 19.713660   -47.818712 154.575370  -0.113841  -51.605215
     -42.094549 19.707470   -26.962276 -102.474360 -0.482602  159.319300  -46.450786 176.792650
     -47.891935 154.268580  -0.477638  159.286020  -25.943571 -121.554620 -42.797636 16.421649
     -0.115308  -51.571469  -46.417621 177.469160  -42.841930 16.443391   -28.893951 -139.054010
3720 -28.470121 -139.631330 -42.708299 25.895596   -47.839177 153.374240  -0.115212  -51.761853
     -42.682174 25.761802   -27.221632 -102.234400 -0.482610  158.747040  -46.466728 176.397170
     -47.810762 153.138930  -0.478902  158.703050  -26.108523 -122.965500 -43.475077 23.142114
     -0.116710  -51.733464  -46.414287 176.500310  -43.497259 23.202970   -28.865691 -140.064930
3730 -28.382594 -139.218920 -43.164885 33.109727   -47.780594 152.769180  -0.116442  -51.927859
     -43.163755 33.181114   -27.466547 -102.375820 -0.483085  158.154060  -46.544370 175.598050
     -47.801461 152.246770  -0.479561  158.119990  -26.201236 -124.174950 -44.056396 31.266664
     -0.117669  -51.906761  -46.431160 175.942640  -44.112902 31.168673   -28.705374 -140.511320
3740 -28.257196 -139.065370 -43.496293 41.420990   -47.855986 151.553300  -0.116638  -52.089893
     -43.468962 41.004426   -27.735393 -102.919830 -0.481217  157.571520  -46.568180 175.085970
     -47.888054 151.308850  -0.480107  157.544830  -26.358802 -124.966660 -44.461418 40.377532
     -0.119269  -52.067857  -46.502803 175.583510  -44.494900 40.342719   -28.592626 -140.918240
3750 -28.216787 -139.365930 -43.582752 49.595176   -47.870291 151.113620  -0.117760  -52.208834
     -43.623983 49.244278   -27.954795 -104.026830 -0.481021  157.018710  -46.592125 175.216520
     -47.850236 150.767700  -0.480003  156.991970  -26.418024 -125.507120 -44.560884 50.033532
     -0.120244  -52.192503  -46.541305 175.871110  -44.636822 50.286734   -28.436969 -140.819880
3760 -28.145982 -140.272490 -43.578699 57.638746   -47.839170 150.798490  -0.116826  -52.333527
     -43.603166 57.974039   -28.095356 -105.596760 -0.481148  156.467640  -46.602812 175.138980
     -47.832120 149.980180  -0.480594  156.439140  -26.488009 -125.464630 -44.441078 59.660463
     -0.120708  -52.323568  -46.542000 175.620870  -44.475765 59.847519   -28.414235 -139.942730
3770 -28.168502 -141.083410 -43.313710 66.356000   -47.841880 149.550130  -0.116857  -52.479381
     -43.337607 66.238077   -28.171758 -107.259580 -0.482458  155.901480  -46.563548 175.204670
     -47.844620 149.397610  -0.481572  155.868970  -26.538846 -124.894180 -44.023953 68.524926
     -0.120007  -52.458870  -46.567359 175.506330  -44.061009 68.984860   -28.357234 -138.518170
3780 -28.272353 -142.321820 -42.905757 74.033392   -47.901364 149.058280  -0.117145  -52.629624
     -42.928486 73.900734   -28.222938 -108.928900 -0.482734  155.322160  -46.512529 174.796680
     -47.851099 148.609690  -0.480878  155.300640  -26.585899 -123.999540 -43.480213 76.406624
     -0.120809  -52.602392  -46.534128 175.634590  -43.499487 76.369204   -28.395322 -136.698460
3790 -28.441806 -143.413590 -42.345786 80.757731   -47.908264 147.917470  -0.115028  -52.769542
     -42.382805 80.848507   -28.262936 -110.507020 -0.483472  154.763310  -46.458248 174.344670
     -47.913727 148.074880  -0.478889  154.737350  -26.667102 -123.423500 -42.852490 83.191287
     -0.118889  -52.739680  -46.487534 174.747750  -42.902773 83.552200   -28.591675 -134.681320
3800 -28.711846 -144.870560 -41.707201 87.091612   -48.025956 147.474090  -0.113179  -52.905160
     -41.715830 87.098939   -28.221486 -111.384980 -0.483586  154.220110  -46.411629 173.523390
     -47.945660 147.271370  -0.477685  154.193290  -26.677389 -122.924590 -42.198857 89.642749
     -0.116793  -52.865737  -46.493592 174.098070  -42.231172 89.779530   -28.809051 -132.880040
3810 -28.966099 -145.928190 -40.993342 92.296018   -48.137513 147.302760  -0.112938  -53.034361
     -40.957123 92.353354   -28.169430 -111.854790 -0.486277  153.672320  -46.470234 172.777560
     -48.058775 147.024980  -0.479147  153.643300  -26.696809 -123.231270 -41.463449 94.811416
     -0.117016  -52.999790  -46.537486 173.394950  -41.432863 94.879058   -29.146728 -131.554650
3820 -29.228545 -146.081170 -40.271138 96.622716   -48.114640 147.120110  -0.112681  -53.198588
     -40.238889 96.517281   -28.185712 -111.688580 -0.487341  153.108450  -46.572375 172.520990
     -48.006005 146.916910  -0.481226  153.073370  -26.823272 -123.889990 -40.649286 99.219019
     -0.115612  -53.164701  -46.595038 173.160220  -40.687321 99.553366   -29.518741 -131.119420
3830 -29.460119 -146.134550 -39.540037 99.898882   -48.044982 147.025290  -0.111564  -53.375221
     -39.516520 99.955814   -28.299676 -110.688110 -0.488580  152.531050  -46.602476 171.662520
     -47.965023 146.931420  -0.482025  152.489030  -26.996619 -125.051270 -39.877484 103.058650
     -0.114473  -53.346877  -46.757935 172.753770  -39.917322 103.169560  -29.966863 -131.257790
3840 -29.605762 -145.299280 -38.868521 102.825150  -47.916457 146.839000  -0.113189  -53.551843
     -38.878619 102.807400  -28.545741 -109.313470 -0.487295  151.956680  -46.648617 172.203080
     -47.852434 146.778880  -0.482486  151.916640  -27.241995 -126.653110 -39.122290 105.926320
     -0.113826  -53.527477  -46.773046 172.893000  -39.148100 106.080830  -30.233709 -132.773990
3850 -29.581618 -144.341070 -38.209960 105.540500  -47.851660 146.133870  -0.115430  -53.700273
     -38.215902 105.361990  -28.872927 -107.590460 -0.485162  151.406300  -46.606098 172.079340
     -47.755443 145.629400  -0.482325  151.369180  -27.548306 -128.807350 -38.423743 108.351200
     -0.115691  -53.674437  -46.755360 172.326440  -38.428929 108.562500  -30.361009 -135.829890
3860 -29.532217 -143.267820 -37.593099 107.683960  -47.762750 144.691020  -0.118061  -53.834992
     -37.599307 107.700740  -29.307374 -105.485810 -0.484154  150.845450  -46.688170 171.460920
     -47.669426 144.307690  -0.482064  150.811780  -27.918200 -130.577580 -37.735831 110.383170
     -0.117429  -53.819296  -46.822587 172.193520  -37.740781 110.568470  -30.381336 -138.966250
3870 -29.318684 -142.217230 -36.973380 109.534810  -47.833666 143.695770  -0.120860  -53.985011
     -36.983745 109.477670  -29.880078 -104.340200 -0.484202  150.269640  -46.717626 171.301660
     -47.711030 143.288300  -0.483168  150.240710  -28.286179 -132.556820 -37.068853 112.117240
     -0.121145  -53.979862  -46.849603 172.117970  -37.085141 112.265270  -30.138461 -141.432630
3880 -28.987598 -141.540970 -36.416939 111.148780  -47.786034 142.348450  -0.120770  -54.134579
     -36.411546 111.123810  -30.539888 -103.571420 -0.485531  149.675240  -46.753639 171.366130
     -47.647352 141.778240  -0.483093  149.659500  -28.709909 -133.824970 -36.448954 113.458770
     -0.124758  -54.139117  -46.861560 171.840370  -36.451651 113.580880  -29.754815 -143.160730
3890 -28.684495 -141.180770 -35.847964 112.522370  -47.867075 140.894590  -0.119760  -54.277287
     -35.846896 112.595810  -31.242411 -104.193080 -0.485853  149.098010  -46.756649 171.649850
     -47.767678 140.276680  -0.482838  149.084220  -29.102908 -134.660470 -35.850455 114.477090
     -0.125633  -54.278131  -46.886793 172.037450  -35.861108 114.642480  -29.356026 -144.236820
3900 -28.518749 -141.714290 -35.289749 113.716650  -47.936802 140.243740  -0.118186  -54.399220
     -35.300872 113.696250  -31.883978 -106.193120 -0.488073  148.542890  -46.678308 171.688160
     -47.891637 140.129760  -0.483554  148.532230  -29.455727 -134.482680 -35.304498 115.329060
     -0.124224  -54.384451  -46.883743 172.052530  -35.313333 115.422400  -29.005751 -144.031470
3910 -28.356047 -142.421980 -34.783090 114.651340  -48.056082 139.671860  -0.115804  -54.524100
     -34.787900 114.656970  -32.414548 -110.407060 -0.489315  148.000900  -46.586933 171.835530
     -47.912602 139.566600  -0.483320  147.993810  -29.782713 -133.832280 -34.796564 116.034230
     -0.122807  -54.503226  -46.793127 171.523840  -34.799686 116.107150  -28.788603 -143.048480
3920 -28.311711 -143.617380 -34.290847 115.469200  -48.057313 138.951670  -0.115165  -54.691258
     -34.296035 115.493720  -32.674834 -114.582790 -0.490589  147.436300  -46.467579 171.239380
     -48.020492 138.730440  -0.484307  147.419010  -30.015975 -132.453070 -34.312622 116.636340
     -0.121042  -54.650462  -46.680930 171.256320  -34.321992 116.742780  -28.633821 -141.349720
3930 -28.324666 -144.646500 -33.845656 116.148340  -48.165968 138.517840  -0.114928  -54.869706
     -33.834188 116.108300  -32.799984 -118.484750 -0.491604  146.864140  -46.442890 170.476070
     -48.010746 138.606800  -0.485120  146.841000  -30.135864 -131.311920 -33.860687 117.121640
     -0.120467  -54.827470  -46.632796 170.124370  -33.883667 117.327170  -28.597041 -139.748920
3940 -28.379446 -145.635120 -33.381237 116.795460  -48.225931 138.058620  -0.116781  -55.042297
     -33.378799 116.819870  -32.631034 -121.295400 -0.491039  146.299670  -46.374870 169.293300
     -48.068165 138.580570  -0.484762  146.278160  -30.260480 -130.919920 -33.452970 117.674360
     -0.119186  -54.996760  -46.571853 168.848840  -33.462019 117.830130  -28.743032 -138.263790
3950 -28.550794 -146.487580 -32.949436 117.211060  -48.238467 138.206670  -0.118516  -55.175162
     -32.938176 117.211150  -32.442443 -121.636480 -0.489199  145.757150  -46.434252 168.342820
     -48.048559 138.643720  -0.485061  145.732920  -30.311607 -131.049210 -33.025294 118.290170
     -0.119173  -55.142402  -46.654498 168.060420  -33.046774 118.397830  -28.986767 -137.350560
3960 -28.718625 -146.691250 -32.548635 117.697710  -48.198021 137.730610  -0.120963  -55.307529
     -32.545204 117.717770  -32.221753 -120.667830 -0.488684  145.207890  -46.499817 167.644210
     -48.013587 137.890540  -0.486294  145.188630  -30.411809 -132.166460 -32.625796 118.770210
     -0.120288  -55.289002  -46.706462 167.206280  -32.627923 118.892560  -29.354724 -137.522130
3970 -28.850753 -146.227770 -32.137743 118.048580  -48.186191 137.712040  -0.123819  -55.455764
     -32.145135 117.991640  -32.130722 -118.350750 -0.490069  144.634400  -46.614176 166.975940
     -48.034831 138.013900  -0.489477  144.615920  -30.462874 -134.210600 -32.225979 119.129710
     -0.122821  -55.446949  -46.785008 166.446460  -32.223691 119.323090  -29.638033 -139.059120
3980 -28.930474 -144.618530 -31.775396 118.333500  -48.062597 137.091440  -0.124490  -55.617773
     -31.772474 118.269790  -32.146139 -114.891290 -0.491816  144.041450  -46.643151 166.938120
     -47.801540 137.532810  -0.490829  144.037980  -30.652723 -137.067810 -31.838253 119.398470
     -0.125660  -55.610050  -46.780040 166.285550  -31.841245 119.566400  -29.895547 -141.392480
3990 -28.922958 -142.656610 -31.405463 118.592660  -47.898130 136.236690  -0.123683  -55.760220
     -31.410680 118.535230  -32.345060 -111.341370 -0.492370  143.472920  -46.650502 166.553330
     -47.779742 136.137740  -0.492150  143.469380  -30.870979 -140.142830 -31.472912 119.625010
     -0.125710  -55.769106  -46.735640 165.241940  -31.483220 119.847560  -29.999564 -145.086520
4000 -28.781054 -140.971000 -31.046277 118.839250  -47.897304 134.401960  -0.121956  -55.902023
     -31.054915 118.810810  -32.670292 -107.280250 -0.492678  142.920140  -46.669740 165.804170
     -47.708361 134.797480  -0.492153  142.924810  -31.137883 -143.576100 -31.109183 119.921860
     -0.126864  -55.884661  -46.875668 164.692220  -31.110323 119.971210  -29.865425 -148.529340
4010 -28.688774 -139.405650 -30.702028 119.007230  -47.794954 133.021960  -0.121827  -56.029960
     -30.708352 118.965010  -33.096973 -103.495330 -0.493550  142.376740  -46.763459 165.611230
     -47.704999 133.152960  -0.493039  142.380320  -31.425882 -146.442520 -30.759778 120.035020
     -0.128053  -56.014270  -46.930265 164.176030  -30.761427 120.128780  -29.621453 -151.713560
4020 -28.471356 -137.988100 -30.376171 119.092770  -47.758272 131.643930  -0.121905  -56.195439
     -30.378380 119.072660  -33.673671 -100.109330 -0.496226  141.808270  -46.796057 165.515390
     -47.650587 132.016750  -0.493563  141.801860  -31.874289 -148.317760 -30.420041 120.122940
     -0.128258  -56.168123  -46.968680 164.074300  -30.425851 120.180650  -29.298785 -153.448400
4030 -28.325730 -137.725910 -30.061749 119.140090  -47.849238 129.761880  -0.122435  -56.361045
     -30.060344 119.143940  -34.338278 -97.705382  -0.497201  141.229470  -46.839422 165.774450
     -47.670033 130.202920  -0.493455  141.219580  -32.406171 -148.766160 -30.092869 120.154140
     -0.128960  -56.334829  -46.991869 163.611930  -30.103681 120.221840  -28.980276 -153.983820
4040 -28.262377 -138.035540 -29.749560 119.220280  -47.938409 127.736820  -0.123231  -56.528748
     -29.744141 119.227570  -35.304080 -97.407778  -0.497835  140.664830  -46.763502 164.523960
     -47.728392 128.253610  -0.493483  140.645430  -32.992843 -148.103210 -29.782581 120.181540
     -0.129010  -56.495389  -47.007215 162.948320  -29.799975 120.248080  -28.688113 -153.215890
4050 -28.268615 -139.485610 -29.433470 119.188030  -48.034027 125.582520  -0.124656  -56.671350
     -29.431667 119.188780  -36.389463 -98.657294  -0.497877  140.116960  -46.805717 163.795120
     -47.858562 126.739950  -0.494607  140.107910  -33.656766 -147.060830 -29.475781 120.091470
     -0.128710  -56.634667  -47.013958 161.980410  -29.494404 120.160890  -28.564503 -151.713420
4060 -28.366013 -141.493430 -29.155467 119.126200  -48.238176 125.063920  -0.125987  -56.806343
     -29.154171 119.078230  -37.552379 -102.480400 -0.498948  139.571880  -46.845605 162.614560
     -48.012113 126.087900  -0.496291  139.559620  -34.324770 -144.958810 -29.204850 120.100640
     -0.129732  -56.778795  -46.997051 160.776310  -29.217605 120.184360  -28.570169 -150.037530
4070 -28.506096 -144.139760 -28.888328 119.055470  -48.373189 124.667190  -0.128731  -56.961849
     -28.885871 118.990830  -38.500233 -106.903050 -0.501294  138.997070  -46.999458 161.624590
     -48.164405 125.846190  -0.498522  138.986360  -34.932668 -142.796370 -28.924170 120.100920
     -0.129293  -56.936082  -47.204249 159.748330  -28.935096 120.255370  -28.644286 -147.863440
4080 -28.621397 -146.593000 -28.626010 119.070500  -48.386476 123.474480  -0.129542  -57.118484
     -28.632180 118.969210  -39.265326 -111.842190 -0.501525  138.408990  -47.083649 161.006230
     -48.126242 124.712270  -0.497985  138.413250  -35.606555 -141.093920 -28.651389 120.100320
     -0.130677  -57.100444  -47.163595 159.175320  -28.658067 120.185570  -28.833711 -146.005800
4090 -28.761380 -148.573160 -28.360945 119.074250  -48.492397 123.091160  -0.130412  -57.269960
     -28.360555 119.002700  -39.722110 -114.980540 -0.501445  137.829110  -47.082022 160.387120
     -48.196507 123.660230  -0.500445  137.831080  -36.352054 -140.987360 -28.377725 120.004660
     -0.130275  -57.254703  -47.119140 158.626670  -28.380863 120.117000  -29.046326 -144.625310
4100 -28.896583 -149.993350 -28.102509 119.009800  -48.484202 123.240400  -0.129788  -57.402264
     -28.103370 118.994720  -40.251923 -114.365860 -0.501740  137.283250  -47.078245 159.180860
     -48.217874 124.076790  -0.500130  137.291340  -37.037737 -143.600480 -28.124437 119.954570
     -0.130507  -57.390098  -47.058557 157.008030  -28.128222 120.060520  -29.272335 -144.030360
4110 -28.851930 -150.758630 -27.849426 118.975510  -48.353737 122.964480  -0.130419  -57.531550
     -27.849419 118.942990  -40.622172 -110.193860 -0.502417  136.738840  -47.210909 158.198000
     -48.172933 122.866810  -0.501612  136.747990  -37.810522 -147.876810 -27.860101 119.910200
     -0.133824  -57.516407  -47.171164 155.488100  -27.866510 120.026850  -29.415605 -144.535510
4120 -28.773806 -150.331930 -27.603422 118.912790  -48.278931 121.580060  -0.130551  -57.685431
     -27.596775 118.855920  -40.631807 -101.197520 -0.503681  136.172040  -47.343215 156.847540
     -48.029310 122.203320  -0.502448  136.181820  -38.338296 -152.301940 -27.610239 119.817070
     -0.135688  -57.670813  -47.285172 154.165880  -27.619786 119.905220  -29.433342 -145.543170
4130 -28.647748 -149.371940 -27.368927 118.794810  -48.110355 120.314280  -0.130754  -57.848314
     -27.366089 118.779240  -40.656427 -90.307182  -0.504925  135.594890  -47.586459 156.401890
     -47.937825 120.602830  -0.501478  135.597280  -39.083433 -157.574660 -27.369041 119.681000
     -0.137281  -57.837140  -47.501240 153.408620  -27.378138 119.809920  -29.333068 -146.981540
4140 -28.506534 -148.313220 -27.131081 118.706720  -48.044307 117.924440  -0.130078  -58.020713
     -27.135741 118.714170  -40.788367 -80.332697  -0.504509  135.027250  -47.708582 156.001410
     -47.889944 119.140330  -0.501258  135.023880  -39.986394 -163.651470 -27.128300 119.598350
     -0.135428  -58.000648  -47.680923 152.915520  -27.142296 119.668310  -29.087279 -148.394450
4150 -28.229428 -147.569020 -26.897689 118.628320  -48.014420 115.878490  -0.130164  -58.174539
     -26.898626 118.611670  -41.248345 -72.396398  -0.504344  134.480660  -47.852366 155.672380
     -47.846801 116.665550  -0.502430  134.479660  -40.758099 -168.492960 -26.889602 119.445890
     -0.135669  -58.147059  -47.760664 152.747400  -26.898379 119.551940  -28.768250 -149.518720
4160 -27.989611 -147.823870 -26.665469 118.501890  -48.026044 113.699470  -0.131431  -58.325756
     -26.663912 118.486410  -42.448105 -65.304596  -0.505160  133.930000  -47.954704 155.439510
     -47.855951 114.834860  -0.503935  133.935360  -41.898534 -174.065960 -26.658786 119.240330
     -0.137024  -58.291417  -47.860590 152.605840  -26.672267 119.373780  -28.439394 -149.823870
4170 -27.764125 -148.400210 -26.450066 118.373640  -48.078498 110.640460  -0.134025  -58.499808
     -26.447667 118.352750  -43.914464 -58.817207  -0.508200  133.362710  -48.031451 154.223110
     -47.910851 112.120710  -0.506296  133.369470  -43.605483 -174.459490 -26.445858 119.100670
     -0.137516  -58.466045  -47.856668 151.788820  -26.460764 119.189650  -28.080076 -149.147020
4180 -27.630777 -149.745020 -26.227060 118.187340  -48.357315 108.575530  -0.136328  -58.668199
     -26.231647 118.135550  -45.970205 -55.104697  -0.509218  132.776950  -48.192918 152.913530
     -48.120093 109.623530  -0.508432  132.787660  -45.153457 -170.167240 -26.230773 118.937380
     -0.138809  -58.645606  -48.012665 150.560610  -26.241368 119.103950  -27.876536 -147.717900
4190 -27.556697 -151.696600 -26.018462 118.024710  -48.597676 107.178660  -0.137856  -58.821710
     -26.018548 117.984380  -48.929224 -54.130331  -0.511079  132.194770  -48.349070 152.330610
     -48.332938 107.596480  -0.510135  132.213100  -47.093212 -163.311360 -26.012501 118.796110
     -0.141330  -58.808583  -48.104942 150.189430  -26.023132 118.924110  -27.762111 -145.438720
4200 -27.600100 -154.004730 -25.805939 117.895980  -48.768569 105.682800  -0.138333  -58.942674
     -25.807863 117.859580  -52.845504 -66.025328  -0.512921  131.657590  -48.498434 152.644550
     -48.560297 106.278490  -0.512289  131.680170  -48.440408 -155.396650 -25.797479 118.599010
     -0.142714  -58.935860  -48.069577 150.278560  -25.805214 118.693240  -27.866235 -143.326790
4210 -27.758865 -156.448490 -25.593874 117.700980  -49.051602 104.775860  -0.140002  -59.068372
     -25.601256 117.661190  -54.682665 -82.386428  -0.514544  131.116730  -48.534301 152.180820
     -48.823894 105.297020  -0.514739  131.142290  -49.497064 -149.056150 -25.591217 118.373350
     -0.143761  -59.065953  -48.100469 149.186450  -25.602512 118.481270  -28.009499 -141.091600
4220 -27.967071 -158.639290 -25.391051 117.428400  -49.277959 104.961780  -0.140233  -59.213081
     -25.391598 117.409960  -51.739643 -100.206560 -0.514535  130.549220  -48.656237 151.040710
     -49.118595 105.477730  -0.515806  130.577350  -50.572467 -143.946660 -25.396134 118.144630
     -0.146301  -59.207001  -48.090807 148.069400  -25.398910 118.234050  -28.356364 -139.024140
4230 -28.229032 -160.078640 -25.205795 117.168860  -49.221313 104.801270  -0.139337  -59.366863
     -25.210264 117.141290  -48.258058 -93.319383  -0.513710  129.978350  -48.868317 149.723290
     -49.049086 105.339340  -0.515636  130.002420  -51.593268 -145.466990 -25.198605 117.889770
     -0.147689  -59.354210  -48.423105 146.457210  -25.212317 117.967250  -28.803726 -137.637760
4240 -28.592230 -160.764980 -25.021299 116.965270  -49.277765 104.558880  -0.138454  -59.522790
     -25.024470 116.924550  -45.639256 -83.455235  -0.514615  129.410710  -49.075748 149.101860
     -49.005615 105.442630  -0.514928  129.424880  -53.765723 -158.736330 -25.011100 117.681860
     -0.146847  -59.506459  -48.722289 146.110060  -25.023529 117.805180  -29.391296 -136.898350
4250 -28.973365 -160.687660 -24.845082 116.763640  -49.178450 104.514750  -0.139352  -59.657735
     -24.845759 116.744540  -43.785023 -76.230379  -0.514219  128.872730  -49.365049 148.200310
     -48.982395 106.141260  -0.515862  128.887340  -53.505595 163.582090  -24.821029 117.462620
     -0.145387  -59.631355  -48.947623 145.858450  -24.835883 117.566030  -29.943460 -138.004590
4260 -29.235684 -159.688560 -24.666982 116.564350  -48.875617 104.047560  -0.141523  -59.800927
     -24.665513 116.544910  -42.295787 -64.450233  -0.516355  128.332200  -49.608241 147.753200
     -48.684628 104.967460  -0.518345  128.348230  -51.001112 132.271140  -24.637508 117.200350
     -0.147554  -59.766868  -49.093951 146.081300  -24.649070 117.356530  -30.462239 -140.520620
4270 -29.446760 -157.447370 -24.490917 116.336750  -48.699072 103.068610  -0.144048  -59.963248
     -24.489118 116.327790  -40.976936 -53.651270  -0.518679  127.769750  -49.819800 146.370270
     -48.405748 103.893410  -0.520641  127.781170  -48.513849 112.991240  -24.462297 117.014430
     -0.148606  -59.942414  -49.185763 145.502110  -24.470469 117.098360  -30.735889 -143.956070
4280 -29.439566 -155.031140 -24.316796 116.111650  -48.429761 101.472190  -0.146225  -60.126525
     -24.319571 116.107760  -39.956603 -43.036318  -0.520656  127.195550  -49.982935 146.131980
     -48.024902 102.297500  -0.523301  127.204560  -46.763483 95.311604   -24.294185 116.751360
     -0.149825  -60.108568  -49.340139 145.615870  -24.301078 116.861870  -30.776115 -147.512640
4290 -29.357769 -153.199310 -24.149710 115.957040  -48.202220 99.088506   -0.146957  -60.287117
     -24.147429 115.909530  -39.006294 -32.446114  -0.522610  126.626000  -50.064320 145.290220
     -47.828103 99.538000   -0.524886  126.634110  -45.074962 77.755846   -24.123156 116.526260
     -0.152062  -60.274361  -49.256998 144.518930  -24.128191 116.638910  -30.563062 -150.722890
4300 -29.147995 -152.029110 -23.980182 115.754340  -47.943658 95.889878   -0.147413  -60.422411
     -23.979616 115.743600  -38.538901 -21.507653  -0.522674  126.080160  -50.297537 144.558750
     -47.587410 96.216013   -0.526649  126.094940  -43.200726 64.370535   -23.947184 116.354460
     -0.152217  -60.413435  -49.336299 143.671350  -23.956280 116.432480  -30.180140 -153.538490
4310 -28.931331 -151.896800 -23.808679 115.562810  -47.972944 92.460246   -0.147177  -60.564584
     -23.812373 115.522440  -38.297320 -11.594311  -0.523957  125.538460  -50.325286 143.347800
     -47.670459 92.872642   -0.527905  125.547270  -41.803460 52.138074   -23.779285 116.112410
     -0.154513  -60.550399  -49.316670 142.648420  -23.787664 116.196470  -29.777594 -154.841660
4320 -28.623695 -151.494460 -23.640521 115.360360  -48.020364 90.273611   -0.147760  -60.739857
     -23.642794 115.313040  -38.134782 -3.072232   -0.525454  124.959090  -50.372307 141.451660
     -47.734867 90.064399   -0.528833  124.976240  -40.611805 41.856193   -23.609418 115.861640
     -0.155143  -60.718011  -49.490961 141.626080  -23.619693 115.949290  -29.323136 -154.725880
4330 -28.433537 -151.608020 -23.472311 115.077910  -48.094724 88.022805   -0.148101  -60.915443
     -23.476558 115.043560  -37.969572 3.686352    -0.525842  124.376540  -50.541412 140.659790
     -47.762941 87.758082   -0.529703  124.392700  -39.425265 33.063380   -23.443004 115.579410
     -0.155104  -60.890651  -49.610128 140.335160  -23.449946 115.692590  -29.014449 -154.020240
4340 -28.286289 -151.720690 -23.312919 114.831060  -48.117047 86.009378   -0.148130  -61.091795
     -23.312422 114.798800  -38.074391 8.613460    -0.526248  123.810060  -50.646233 138.504810
     -47.776023 86.564538   -0.530654  123.819560  -38.370333 27.641331   -23.278213 115.305020
     -0.155891  -61.054247  -49.815362 139.487240  -23.288647 115.417780  -28.930035 -152.934240
4350 -28.293174 -152.272070 -23.156101 114.577130  -48.064992 84.485540   -0.147739  -61.227593
     -23.157361 114.558400  -38.067011 12.529858   -0.526467  123.272240  -50.857098 136.555300
     -47.709466 85.088605   -0.532090  123.281980  -37.604718 25.200094   -23.117787 115.015910
     -0.155365  -61.191184  -50.047354 137.699430  -23.125102 115.158980  -28.977396 -151.942940
4360 -28.331841 -152.552880 -23.004360 114.355990  -48.057352 82.667377   -0.150343  -61.367679
     -23.002458 114.332050  -38.110384 12.711583   -0.527781  122.732060  -51.265881 135.318460
     -47.704469 83.181566   -0.533533  122.743450  -36.947740 24.769901   -22.963869 114.755150
     -0.157310  -61.333282  -50.255480 137.331680  -22.972429 114.866150  -29.149119 -151.815280
4370 -28.451939 -152.022070 -22.848501 114.111540  -48.116122 81.684401   -0.152822  -61.526151
     -22.850631 114.068760  -37.788541 9.306658    -0.529621  122.164730  -51.469854 133.200840
     -47.663177 82.033465   -0.534795  122.177170  -36.584407 25.177395   -22.814164 114.477570
     -0.159093  -61.497675  -50.542740 136.381600  -22.823869 114.567110  -29.358435 -152.031020
4380 -28.564581 -150.770560 -22.701935 113.833400  -48.091830 80.219298   -0.155038  -61.692996
     -22.700081 113.788630  -37.210986 4.786992    -0.531166  121.594540  -51.844257 130.975400
     -47.628286 81.363609   -0.536915  121.608110  -36.069704 26.534668   -22.670872 114.190880
     -0.159792  -61.669769  -50.848796 136.249750  -22.677738 114.297000  -29.633959 -153.392900
4390 -28.666493 -149.031710 -22.553919 113.594840  -47.925743 79.796677   -0.154868  -61.848145
     -22.558235 113.571980  -36.313321 0.929963    -0.534165  121.026660  -52.142128 130.378050
     -47.397921 80.774434   -0.537516  121.037250  -35.562529 28.912663   -22.524753 113.964450
     -0.160895  -61.831854  -51.214811 135.612380  -22.530176 114.041090  -29.765437 -155.902010
4400 -28.637975 -147.690550 -22.401220 113.375530  -47.640661 78.262518   -0.155684  -61.988312
     -22.407814 113.339030  -35.421149 -0.962757   -0.535910  120.486490  -52.374606 128.955430
     -47.132310 79.354587   -0.539674  120.501360  -34.884593 31.697618   -22.376333 113.708220
     -0.160948  -61.967156  -51.321980 134.399460  -22.385397 113.793800  -29.752511 -159.149620
4410 -28.438554 -146.137450 -22.257512 113.107470  -47.288440 76.971754   -0.158178  -62.132851
     -22.258972 113.062410  -34.614848 -0.668968   -0.540856  119.945590  -52.657491 127.506930
     -46.735845 77.713897   -0.542853  119.959960  -34.273683 32.535758   -22.228078 113.426030
     -0.163515  -62.112589  -51.506239 134.815980  -22.236103 113.489850  -29.441506 -162.805260
4420 -28.129224 -145.039270 -22.112817 112.819820  -46.922692 74.235693   -0.161864  -62.291230
     -22.116525 112.784640  -33.961181 -0.224697   -0.542503  119.382370  -52.789935 126.207260
     -46.359296 74.868109   -0.545248  119.394190  -33.725915 32.109116   -22.086257 113.101040
     -0.167853  -62.272888  -51.613745 134.245500  -22.095884 113.177270  -28.916980 -164.787080
4430 -27.788181 -144.331280 -21.975553 112.523420  -46.599579 70.383641   -0.163227  -62.458391
     -21.982050 112.480190  -33.368242 1.435559    -0.544454  118.801450  -52.841563 125.087840
     -46.006505 71.382397   -0.548153  118.821280  -33.163178 30.068104   -21.952585 112.763350
     -0.170840  -62.445556  -51.636978 133.469960  -21.962085 112.856440  -28.330682 -165.665360
4440 -27.469196 -144.374360 -21.838093 112.264340  -46.371102 66.270937   -0.164448  -62.619171
     -21.838945 112.188110  -33.002577 3.810305    -0.544244  118.238100  -52.826511 124.029840
     -45.856017 67.690064   -0.548335  118.253460  -32.716160 27.850617   -21.821499 112.483590
     -0.171752  -62.602735  -51.760635 132.473050  -21.830223 112.576320  -27.765358 -165.422950
4450 -27.207465 -145.556520 -21.701714 111.957530  -46.235023 62.569109   -0.166414  -62.757259
     -21.700910 111.919550  -32.793665 6.602720    -0.544348  117.696630  -52.902190 120.457760
     -45.771087 63.771008   -0.549782  117.710270  -32.417122 26.024467   -21.691181 112.193880
     -0.171508  -62.741027  -51.865007 129.783170  -21.702556 112.309440  -27.271084 -163.812690
4460 -27.024692 -147.336000 -21.570509 111.674090  -46.138569 58.992969   -0.167482  -62.901110
     -21.569986 111.623830  -32.760984 9.242114    -0.544982  117.149900  -53.083311 117.311420
     -45.757474 60.441369   -0.551569  117.174370  -32.027580 23.803603   -21.559513 111.937860
     -0.173045  -62.875920  -52.179034 127.476620  -21.568235 112.054600  -26.991783 -161.460020
4470 -26.940489 -148.844180 -21.438367 111.386370  -46.186410 54.883614   -0.168556  -63.076710
     -21.439460 111.338650  -32.786871 10.206209   -0.546094  116.580730  -53.286786 113.921260
     -45.737656 57.260877   -0.553221  116.606590  -31.750656 20.398814   -21.431789 111.642480
     -0.172627  -63.050137  -52.647860 126.652890  -21.439463 111.763890  -26.795284 -158.408680
4480 -26.971194 -150.702520 -21.303839 111.100990  -46.380094 51.468378   -0.170734  -63.264851
     -21.312077 111.037080  -32.680147 10.078527   -0.545832  116.001930  -53.370270 111.423160
     -45.923262 54.824500   -0.553037  116.028660  -31.424952 18.241033   -21.307519 111.375190
     -0.173412  -63.235794  -53.036859 124.399900  -21.309515 111.469270  -26.789654 -154.552890
4490 -27.111606 -152.607710 -21.183528 110.785790  -46.501418 49.313070   -0.171829  -63.440521
     -21.184561 110.743360  -32.615213 9.268907    -0.548236  115.427650  -53.546596 108.018500
     -46.018141 53.076279   -0.556150  115.462830  -31.042397 16.967767   -21.178597 111.115830
     -0.172435  -63.417221  -53.424931 123.484320  -21.181358 111.194230  -26.964867 -151.114440
4500 -27.322460 -154.740480 -21.063517 110.526120  -46.644468 47.513997   -0.172949  -63.573691
     -21.065642 110.463900  -32.329905 8.203595    -0.551314  114.880950  -53.669365 103.396180
     -46.098740 52.096498   -0.557769  114.915410  -30.634941 16.748792   -21.051111 110.880860
     -0.174581  -63.561088  -53.668698 121.417620  -21.056212 110.914080  -27.246876 -148.422850
4510 -27.592852 -156.322720 -20.939646 110.244090  -46.774708 47.387475   -0.175462  -63.697768
     -20.943177 110.211130  -31.884069 6.571051    -0.555059  114.350290  -53.843542 100.237320
     -46.148667 51.122784   -0.559844  114.371370  -30.246542 17.663448   -20.925442 110.639710
     -0.177529  -63.693096  -53.932971 119.599040  -20.929036 110.676550  -27.599614 -146.313200
4520 -27.802666 -156.940720 -20.820566 110.010710  -46.875085 47.110966   -0.175766  -63.848087
     -20.824874 109.966770  -31.315562 4.815835    -0.558674  113.794020  -54.019690 96.328191
     -46.061382 51.069581   -0.561847  113.814970  -29.808297 18.583326   -20.796705 110.389040
     -0.179780  -63.850060  -54.176658 115.264900  -20.806800 110.427180  -27.991267 -145.713740
4530 -28.037398 -156.615390 -20.699446 109.734660  -46.712671 46.805529   -0.175738  -64.012215
     -20.701279 109.680360  -30.598038 3.048930    -0.561793  113.228880  -54.205937 93.059594
     -45.947638 50.932341   -0.565115  113.239980  -29.334618 18.608885   -20.667990 110.080460
     -0.181483  -64.013797  -54.528434 112.876220  -20.682829 110.122160  -28.361283 -146.232370
4540 -28.150653 -155.980500 -20.575055 109.469840  -46.490711 46.359332   -0.175882  -64.178119
     -20.577126 109.415470  -29.909049 2.371125    -0.564303  112.680500  -54.372340 89.307412
     -45.778718 50.092139   -0.566582  112.675470  -28.896735 19.136906   -20.547717 109.780210
     -0.181059  -64.161439  -55.011122 108.981820  -20.558370 109.838390  -28.606097 -147.681870
4550 -28.150073 -154.750740 -20.452740 109.161660  -46.177614 45.351615   -0.175802  -64.316189
     -20.453214 109.115780  -29.296462 3.197988    -0.564471  112.143260  -54.342767 86.396793
     -45.524191 49.123049   -0.567935  112.145700  -28.362232 19.368360   -20.423284 109.468010
     -0.180505  -64.290755  -55.316408 105.638550  -20.436952 109.576030  -28.746589 -150.416610
4560 -28.043918 -153.404620 -20.336207 108.873970  -45.840077 43.961472   -0.175751  -64.469231
     -20.339426 108.849850  -28.819296 4.212415    -0.564507  111.610160  -54.453400 82.573377
     -45.222492 47.958137   -0.569859  111.607620  -27.970687 19.170686   -20.305315 109.153590
     -0.181057  -64.428515  -55.878019 101.848870  -20.316909 109.280400  -28.609507 -153.017190
4570 -27.867852 -152.060300 -20.220932 108.593020  -45.467502 42.359462   -0.178639  -64.641018
     -20.225353 108.558460  -28.447760 5.303426    -0.567140  111.058640  -54.508801 78.706200
     -44.903144 46.188147   -0.570536  111.055370  -27.605715 18.256757   -20.190241 108.829930
     -0.182611  -64.605396  -56.571878 99.098986   -20.199171 108.944050  -28.328924 -154.750780
4580 -27.698674 -151.138060 -20.110288 108.309980  -45.121625 39.363545   -0.179219  -64.824001
     -20.112687 108.249710  -28.231143 6.441145    -0.567548  110.487080  -54.677070 74.759031
     -44.562369 44.512784   -0.572635  110.487760  -27.329234 16.422840   -20.077208 108.512210
     -0.183570  -64.790610  -57.394124 96.106241   -20.083124 108.616200  -28.023980 -155.202740
4590 -27.541762 -151.068540 -19.995118 108.036630  -44.835016 36.553277   -0.182641  -64.989364
     -20.000661 107.971420  -28.051761 7.306524    -0.568220  109.924500  -54.745167 73.154523
     -44.300777 41.639108   -0.574728  109.927620  -27.125570 14.764390   -19.965171 108.213680
     -0.185003  -64.968154  -57.985778 92.122180   -19.968455 108.278370  -27.746094 -154.623060
4600 -27.518826 -152.134030 -19.882989 107.764210  -44.617313 33.257422   -0.183093  -65.121540
     -19.887171 107.713160  -28.013770 8.546604    -0.569411  109.381120  -54.355781 67.816652
     -44.170326 38.529339   -0.575879  109.393520  -26.947022 13.516778   -19.855575 107.931280
     -0.187395  -65.103551  -57.876244 88.341665   -19.862763 108.004530  -27.544443 -153.451910
4610 -27.524925 -153.510270 -19.769060 107.491990  -44.633223 30.375668   -0.184053  -65.260329
     -19.775263 107.440720  -28.039632 9.290050    -0.571908  108.837770  -54.302838 63.465848
     -44.102412 35.926603   -0.577086  108.856030  -26.918748 11.989366   -19.742592 107.690290
     -0.189322  -65.241631  -58.183193 81.345252   -19.750257 107.715430  -27.491864 -151.748110
4620 -27.611054 -154.961790 -19.660640 107.208090  -44.576955 27.822455   -0.185826  -65.420972
     -19.664278 107.150440  -28.127598 9.018524    -0.575634  108.272740  -54.161063 60.532724
     -44.078792 33.614569   -0.579454  108.296450  -26.855831 10.861836   -19.630234 107.376230
     -0.191252  -65.410563  -58.177730 73.842870   -19.642092 107.426840  -27.534726 -149.539850
4630 -27.786628 -155.938180 -19.548878 106.905970  -44.580505 25.315272   -0.186837  -65.597687
     -19.552287 106.856820  -28.177017 7.745078    -0.578439  107.688490  -54.006980 57.658521
     -44.116156 31.987215   -0.581683  107.716920  -26.854367 9.912568    -19.520421 107.053420
     -0.192748  -65.585392  -58.177459 66.636128   -19.532478 107.085510  -27.677090 -147.364360
4640 -28.001322 -156.944830 -19.436663 106.595550  -44.653828 23.552274   -0.187535  -65.763757
     -19.443602 106.567900  -28.128475 6.085152    -0.581320  107.129420  -53.727596 55.432050
     -44.216472 30.803620   -0.581550  107.151720  -26.768936 9.532317    -19.414972 106.743680
     -0.192599  -65.748549  -58.103658 59.093307   -19.427433 106.786160  -27.997350 -145.702760
4650 -28.179037 -157.778660 -19.327765 106.283490  -44.778300 22.892881   -0.189387  -65.902610
     -19.333439 106.266040  -28.006446 4.475911    -0.584230  106.591840  -53.294306 50.828860
     -44.278527 30.248572   -0.584411  106.613940  -26.661300 9.793957    -19.308962 106.456050
     -0.194243  -65.882405  -57.646149 53.693292   -19.319486 106.507590  -28.325042 -145.179540
4660 -28.292162 -157.920100 -19.221159 105.979930  -44.677874 23.017008   -0.191385  -66.037469
     -19.225083 105.958220  -27.828880 2.795218    -0.586092  106.064730  -52.982206 47.036738
     -44.236379 30.059065   -0.586325  106.073490  -26.468863 10.444790   -19.203978 106.152590
     -0.196306  -66.016296  -57.238693 47.404537   -19.214731 106.222960  -28.653430 -145.773420
4670 -28.409853 -156.734000 -19.118063 105.658580  -44.570800 23.204199   -0.192884  -66.198461
     -19.118862 105.632200  -27.507201 0.751536    -0.588182  105.508220  -52.701899 44.304264
     -44.124666 30.354506   -0.590241  105.509660  -26.296573 10.561798   -19.097817 105.852470
     -0.197350  -66.182603  -56.925308 40.505357   -19.107154 105.931050  -28.855648 -146.880520
4680 -28.403537 -155.075560 -19.013579 105.323810  -44.307853 23.387308   -0.193061  -66.379502
     -19.013997 105.290540  -27.175375 -1.048874   -0.590272  104.949570  -52.471190 41.610521
     -43.945554 30.704478   -0.592073  104.932560  -26.034048 10.688153   -18.994364 105.520590
     -0.197913  -66.355486  -56.380613 31.790587   -19.004260 105.592650  -29.005450 -148.562460
4690 -28.403797 -153.560060 -18.915008 105.000940  -44.000777 23.350303   -0.193875  -66.534748
     -18.915282 104.939580  -26.800189 -2.029893   -0.588984  104.399510  -52.284175 36.659803
     -43.701894 30.277707   -0.592746  104.372480  -25.781092 10.387922   -18.888251 105.206950
     -0.199500  -66.517782  -55.891145 24.295598   -18.898214 105.299170  -28.962424 -151.029540
4700 -28.307928 -152.062870 -18.816761 104.707510  -43.537921 22.664840   -0.195529  -66.686114
     -18.818767 104.631430  -26.469533 -1.957189   -0.590258  103.859390  -52.154507 33.736518
     -43.298929 29.602077   -0.595134  103.842030  -25.489409 10.091136   -18.787096 104.864950
     -0.199506  -66.661773  -55.502935 17.775540   -18.794736 104.984110  -28.774959 -153.050410
4710 -28.204995 -151.752920 -18.715407 104.402740  -43.221638 21.214043   -0.198617  -66.838393
     -18.720746 104.326220  -26.170049 -1.643562   -0.592520  103.317720  -51.844263 30.966944
     -42.948912 28.063599   -0.596591  103.312270  -25.279834 9.565406    -18.690290 104.564420
     -0.201970  -66.804303  -54.908616 12.491457   -18.696326 104.659470  -28.503982 -154.644710
4720 -28.130924 -151.196630 -18.621413 104.070180  -42.862936 18.979031   -0.201728  -67.009452
     -18.629379 103.999390  -25.964379 -1.339645   -0.596792  102.748060  -51.462694 27.943627
     -42.688310 26.478649   -0.600075  102.745890  -25.075304 8.355512    -18.591663 104.235260
     -0.205073  -66.974224  -54.399948 7.504619    -18.596547 104.312400  -28.274646 -154.708280
4730 -28.054542 -151.208660 -18.525109 103.743910  -42.619315 16.429662   -0.205652  -67.180933
     -18.532644 103.675750  -25.775058 -1.130328   -0.599276  102.174420  -51.116061 24.364969
     -42.497589 24.408204   -0.602328  102.180600  -24.891142 7.203107    -18.498051 103.887970
     -0.206421  -67.153912  -53.637403 1.344997    -18.500344 103.964550  -28.058951 -154.052860
4740 -28.087978 -152.259250 -18.430656 103.455540  -42.427369 14.046259   -0.207957  -67.340909
     -18.440175 103.394440  -25.625535 -1.268602   -0.602773  101.619870  -50.980245 21.717291
     -42.328199 22.201301   -0.605170  101.625580  -24.759416 6.251986    -18.405791 103.583270
     -0.208925  -67.317575  -53.277833 -1.785887   -18.409455 103.631910  -27.982370 -152.313280
4750 -28.205260 -154.091420 -18.337900 103.171270  -42.355209 12.135255   -0.209788  -67.469948
     -18.343145 103.126280  -25.486163 -1.283228   -0.606302  101.090880  -50.664227 17.894756
     -42.226696 19.736697   -0.607638  101.095820  -24.605850 5.643449    -18.311983 103.306280
     -0.209952  -67.452139  -52.919280 -3.621870   -18.315335 103.326370  -28.031835 -150.074100
4760 -28.428260 -156.073950 -18.243204 102.876560  -42.279957 10.522004   -0.208604  -67.595987
     -18.247978 102.835940  -25.362670 -1.763299   -0.609278  100.568530  -50.540759 15.870147
     -42.164021 17.848465   -0.610055  100.563390  -24.482673 5.519229    -18.216205 103.025100
     -0.211817  -67.585118  -52.569027 -5.277475   -18.226097 103.035700  -28.177216 -148.147330
4770 -28.697216 -157.426960 -18.151307 102.591500  -42.202568 8.666037    -0.208292  -67.748080
     -18.153176 102.544910  -25.212076 -2.589777   -0.611033  100.015320  -50.425120 14.496017
     -42.165085 15.870389   -0.612350  100.011220  -24.325903 5.438429    -18.123405 102.702780
     -0.213420  -67.734080  -52.075800 -5.497798   -18.134205 102.716700  -28.463509 -145.694620
4780 -29.076848 -157.918040 -18.055562 102.267620  -42.189302 7.626324    -0.208255  -67.924652
     -18.056815 102.226300  -25.030083 -3.954799   -0.614419  99.457862   -50.310274 13.943809
     -42.262076 14.859278   -0.615469  99.438385   -24.169054 5.355145    -18.027460 102.352700
     -0.214238  -67.892803  -51.497154 -7.088088   -18.043005 102.394820  -28.900614 -143.975980
4790 -29.421087 -157.894630 -17.964110 101.940900  -42.136568 7.200385    -0.207896  -68.097880
     -17.967207 101.886920  -24.740696 -5.374711   -0.615065  98.898912   -50.048547 12.779416
     -42.285474 14.591862   -0.616362  98.878195   -23.926124 5.619837    -17.937306 102.028780
     -0.213249  -68.058554  -50.799350 -9.005746   -17.950420 102.103400  -29.387798 -143.164990
4800 -29.805978 -157.470220 -17.871461 101.652230  -42.065203 7.101180    -0.209248  -68.254747
     -17.872570 101.582760  -24.433973 -6.331090   -0.618334  98.362228   -49.696222 11.299341
     -42.187995 14.386685   -0.617779  98.340963   -23.704500 5.808681    -17.848966 101.708730
     -0.212165  -68.204980  -50.347117 -10.103883  -17.857147 101.802160  -29.987838 -144.206910
4810 -30.116213 -155.943940 -17.777750 101.326020  -41.880818 7.006876    -0.212179  -68.406504
     -17.782559 101.254280  -24.069641 -7.339134   -0.621308  97.821389   -49.255599 10.325435
     -42.018359 14.524252   -0.622040  97.808059   -23.433819 5.953470    -17.762559 101.380470
     -0.214917  -68.351995  -49.890599 -12.845991  -17.766248 101.500220  -30.477628 -146.298720
4820 -30.374106 -153.526690 -17.689864 100.984180  -41.706425 6.933042    -0.216460  -68.578517
     -17.695868 100.917030  -23.708454 -7.977641   -0.626058  97.272322   -48.865452 7.609044
     -41.826926 14.856972   -0.625398  97.252727   -23.181445 5.518554    -17.676373 101.070900
     -0.216307  -68.526520  -49.377004 -14.875354  -17.677152 101.167840  -30.798839 -149.447050
4830 -30.431796 -151.080910 -17.605337 100.633350  -41.404221 6.862185    -0.219175  -68.736966
     -17.611716 100.576900  -23.358617 -8.323012   -0.627908  96.705667   -48.571349 5.487444
     -41.538723 14.927676   -0.630380  96.689607   -22.919911 4.890865    -17.592707 100.774310
     -0.220319  -68.712717  -48.855786 -16.794342  -17.591949 100.845450  -30.933986 -152.625050
4840 -30.388407 -149.124960 -17.521626 100.306360  -41.057923 6.489263    -0.221228  -68.892680
     -17.528955 100.252890  -23.060903 -8.242152   -0.630430  96.154130   -48.216142 2.364487
     -41.209743 14.446649   -0.632069  96.152284   -22.691819 3.943216    -17.505679 100.485530
     -0.223078  -68.868826  -48.398087 -18.759855  -17.502952 100.531820  -30.872657 -155.764040
4850 -30.154392 -148.517130 -17.439467 100.014170  -40.685498 6.127985    -0.221662  -69.016904
     -17.444911 99.973704   -22.820839 -7.671805   -0.633339  95.630604   -47.912364 -0.588878
     -40.797112 13.178623   -0.635004  95.629641   -22.477621 3.198858    -17.415103 100.209250
     -0.223793  -69.005055  -48.058678 -20.470270  -17.416192 100.231440  -30.565843 -157.992030
4860 -30.078340 -149.260100 -17.354467 99.738115   -40.371208 4.470414    -0.222136  -69.145950
     -17.362598 99.682198   -22.667347 -6.800244   -0.636651  95.108634   -47.625424 -2.286467
     -40.483785 11.052993   -0.637971  95.106731   -22.342996 2.228259    -17.328141 99.920006
     -0.227179  -69.128641  -47.660425 -21.415492  -17.332847 99.943798   -30.077579 -158.964490
4870 -29.949558 -150.168190 -17.269197 99.412929   -40.091338 2.580515    -0.222829  -69.305326
     -17.279118 99.365929   -22.584091 -6.312794   -0.639958  94.561052   -47.589604 -4.061885
     -40.269478 9.087189    -0.639938  94.556490   -22.252215 1.026940    -17.240072 99.613001
     -0.228633  -69.285242  -47.231085 -22.245022  -17.249940 99.623786   -29.754477 -158.234520
4880 -29.807880 -151.830570 -17.189422 99.111578   -39.804934 1.125179    -0.223835  -69.480306
     -17.195492 99.058890   -22.529446 -5.914147   -0.643064  93.992610   -47.420128 -5.713262
     -40.125013 7.377848    -0.640967  93.994064   -22.157940 -0.030218   -17.154708 99.273122
     -0.229757  -69.453633  -46.844054 -22.722770  -17.164343 99.295247   -29.477226 -156.386190
4890 -29.804322 -153.842320 -17.102178 98.784783   -39.592318 -0.989795   -0.225768  -69.658989
     -17.111449 98.752833   -22.494641 -5.780091   -0.644531  93.440804   -47.382987 -6.442769
     -39.981647 5.370537    -0.642947  93.433988   -22.121096 -1.248018   -17.070502 98.921569
     -0.230324  -69.621429  -46.443820 -23.031190  -17.079381 98.966984   -29.320095 -153.627180
4900 -29.854126 -156.497210 -17.018715 98.485340   -39.463091 -2.925946   -0.228118  -69.806417
     -17.024278 98.443282   -22.476225 -6.029064   -0.646769  92.908805   -47.061222 -6.901304
     -39.851330 3.314696    -0.645210  92.902704   -22.081311 -1.980373   -16.987874 98.590210
     -0.231973  -69.772907  -46.170709 -23.530788  -16.996500 98.649328   -29.267399 -151.299420
4910 -29.987695 -158.330910 -16.939344 98.175745   -39.366739 -4.170093   -0.231330  -69.952078
     -16.945126 98.130024   -22.450450 -6.486556   -0.648571  92.376083   -46.757454 -7.591419
     -39.816474 1.658501    -0.648809  92.357164   -22.020670 -2.441374   -16.909182 98.275195
     -0.234304  -69.918709  -45.869242 -24.241106  -16.913121 98.329721   -29.398617 -148.669770
4920 -30.200626 -159.820090 -16.857671 97.851199   -39.292018 -5.466503   -0.233198  -70.118202
     -16.861856 97.808027   -22.396382 -7.304676   -0.651026  91.818672   -46.536345 -8.388035
     -39.752332 0.397636    -0.653182  91.811802   -21.973168 -2.940217   -16.828176 97.939634
     -0.236822  -70.081295  -45.566494 -24.527381  -16.833516 97.994310   -29.638667 -146.370590
4930 -30.492342 -159.951410 -16.777776 97.509739   -39.196348 -6.334278   -0.235515  -70.297790
     -16.782169 97.466188   -22.281008 -8.321673   -0.653472  91.253706   -46.277666 -9.377726
     -39.709694 -0.270543   -0.654564  91.243768   -21.857932 -3.579258   -16.747343 97.606902
     -0.238495  -70.255535  -45.226247 -24.943608  -16.750517 97.682047   -30.028645 -145.031580
4940 -30.758085 -159.199930 -16.697228 97.187704   -39.099031 -6.669126   -0.235826  -70.456647
     -16.703158 97.125437   -22.113600 -9.208038   -0.654885  90.689856   -45.911963 -10.254187
     -39.627936 -0.653638   -0.656365  90.692354   -21.715350 -4.085220   -16.668540 97.274666
     -0.239961  -70.420030  -44.855924 -25.070010  -16.668242 97.330237   -30.427074 -145.011420
4950 -31.069042 -158.326710 -16.616625 96.856766   -38.967141 -7.151773   -0.238214  -70.600439
     -16.625352 96.806444   -21.939302 -9.728649   -0.656357  90.160764   -45.515695 -11.954813
     -39.522347 -1.275615   -0.658886  90.165684   -21.547677 -4.487797   -16.592511 96.947469
     -0.239996  -70.559314  -44.492076 -26.066823  -16.588022 97.017281   -30.882718 -146.890350
4960 -31.180426 -156.821280 -16.542541 96.558028   -38.800784 -7.565671   -0.239807  -70.736111
     -16.552440 96.499377   -21.694662 -9.922277   -0.662774  89.636272   -45.207559 -13.894254
     -39.309907 -1.710140   -0.664009  89.636645   -21.381800 -4.973756   -16.516893 96.640927
     -0.242022  -70.705758  -44.172677 -26.919179  -16.513166 96.701190   -31.204291 -149.725850
4970 -31.152836 -154.799160 -16.466973 96.217665   -38.600356 -7.916561   -0.242873  -70.904214
     -16.476456 96.173503   -21.479752 -10.154529  -0.667624  89.084810   -44.932046 -15.403792
     -39.110451 -2.104759   -0.669299  89.091631   -21.209702 -5.717326   -16.442969 96.340504
     -0.245304  -70.864822  -43.787395 -27.806877  -16.438556 96.347043   -31.341513 -153.323330
4980 -31.080256 -152.924360 -16.393944 95.894397   -38.334705 -8.526432   -0.244593  -71.066189
     -16.401942 95.853434   -21.281208 -9.936082   -0.672957  88.534709   -44.736535 -16.998699
     -38.909881 -2.790077   -0.674519  88.538335   -21.053121 -6.550798   -16.371611 96.031186
     -0.246010  -71.043568  -43.536291 -27.998533  -16.365213 96.019869   -31.236310 -156.715520
4990 -30.962279 -152.241290 -16.320666 95.565916   -38.109292 -9.237554   -0.247015  -71.233313
     -16.326973 95.536163   -21.109372 -9.820601   -0.676691  87.995244   -44.551831 -18.830289
     -38.700031 -4.141712   -0.677214  87.997867   -20.910652 -7.492734   -16.292629 95.744579
     -0.250423  -71.212292  -43.223424 -28.487720  -16.292132 95.702099   -30.861688 -158.784760
5000 -30.806579 -152.895670 -16.247572 95.277131   -37.836061 -9.997666   -0.246948  -71.375323
     -16.252277 95.245928   -21.002328 -9.474399   -0.681390  87.472469   -44.422378 -20.049225
     -38.383512 -5.263155   -0.682028  87.483048   -20.774607 -8.227824   -16.210109 95.445834
     -0.250992  -71.347930  -42.977475 -29.194634  -16.216310 95.402171   -30.524381 -159.550690
5010 -30.720407 -154.445680 -16.172864 94.990209   -37.586418 -11.152053  -0.250357  -71.521199
     -16.177121 94.949339   -20.921147 -9.170883   -0.682820  86.955699   -44.254861 -20.858048
     -38.148727 -6.837023   -0.684018  86.952978   -20.694508 -9.007269   -16.133601 95.121023
     -0.254748  -71.492047  -42.728530 -29.331747  -16.141919 95.120688   -30.152159 -158.687530
5020 -30.759903 -156.711560 -16.097612 94.672718   -37.340391 -12.638408  -0.253814  -71.683383
     -16.100360 94.622674   -20.902128 -9.222013   -0.685142  86.404478   -44.088649 -21.615951
     -37.965845 -8.569917   -0.685651  86.396544   -20.634029 -9.831619   -16.053956 94.762851
     -0.257076  -71.648817  -42.522081 -29.981376  -16.067918 94.787396   -29.797284 -156.207100
5030 -30.849489 -159.662460 -16.023056 94.347315   -37.133365 -14.289069  -0.255138  -71.860747
     -16.025699 94.295935   -20.866802 -9.654786   -0.687146  85.847225   -43.892147 -21.759313
     -37.803008 -10.272761  -0.687522  85.825416   -20.588476 -10.615249  -15.980647 94.377786
     -0.259187  -71.823564  -42.261166 -30.350842  -15.991723 94.458628   -29.593541 -152.539630
5040 -31.070669 -163.142260 -15.949105 94.019878   -36.980261 -16.015210  -0.257566  -72.025380
     -15.949947 93.961392   -20.837339 -10.303841  -0.686822  85.294861   -43.695443 -22.536130
     -37.700349 -12.395292  -0.688817  85.265337   -20.501286 -11.235740  -15.909878 94.028798
     -0.260724  -71.990465  -42.033809 -30.708281  -15.915467 94.130982   -29.595213 -148.610810
5050 -31.345788 -166.499390 -15.870877 93.691089   -36.927295 -17.652998  -0.259763  -72.177135
     -15.878375 93.641889   -20.764907 -10.953353  -0.689117  84.772599   -43.400875 -22.627546
     -37.648823 -13.894149  -0.690430  84.731527   -20.436552 -11.675846  -15.842003 93.705102
     -0.261419  -72.139759  -41.859640 -30.770620  -15.842122 93.821451   -29.709580 -144.689370
5060 -31.498783 -170.024140 -15.800532 93.362704   -36.874337 -19.014027  -0.262075  -72.319792
     -15.808556 93.331595   -20.655608 -11.725499  -0.693620  84.241677   -43.094637 -23.310802
     -37.546056 -15.158822  -0.695484  84.209457   -20.333981 -12.025447  -15.775652 93.412909
     -0.263441  -72.286312  -41.675254 -30.993104  -15.767720 93.475059   -29.973300 -141.397140
5070 -31.822134 -171.870670 -15.731921 93.019190   -36.811314 -19.774333  -0.265925  -72.488827
     -15.739001 92.993890   -20.516802 -12.540227  -0.699089  83.692191   -42.808826 -23.701473
     -37.572920 -16.181646  -0.700882  83.677113   -20.216264 -12.466829  -15.706845 93.101856
     -0.267010  -72.454797  -41.425568 -30.618206  -15.700094 93.117911   -30.382828 -139.105510
5080 -32.067780 -172.736850 -15.665985 92.677400   -36.805290 -20.098197  -0.268273  -72.661203
     -15.669630 92.656981   -20.345846 -13.243797  -0.703676  83.134785   -42.495724 -24.824574
     -37.540082 -17.187063  -0.705820  83.124598   -20.082776 -12.759893  -15.636648 92.802355
     -0.268318  -72.631798  -41.127780 -30.176300  -15.631070 92.787818   -30.891959 -138.401860
5090 -32.183808 -171.667390 -15.598420 92.360190   -36.751144 -20.454319  -0.269044  -72.822023
     -15.603169 92.322662   -20.163336 -13.736821  -0.708360  82.592229   -42.195837 -25.968836
     -37.491626 -17.491674  -0.708703  82.590775   -19.961138 -13.321887  -15.563719 92.502229
     -0.271431  -72.796584  -40.798083 -30.125857  -15.564939 92.453716   -31.452918 -139.739160
5100 -32.271074 -169.566320 -15.532713 92.074709   -36.667065 -20.552227  -0.269827  -72.957355
     -15.537971 92.017036   -19.983355 -13.797562  -0.712087  82.066480   -41.897790 -26.890726
     -37.385496 -17.889651  -0.713904  82.069220   -19.842324 -13.794679  -15.491369 92.194907
     -0.272105  -72.934690  -40.495443 -30.309311  -15.496584 92.141739   -31.827540 -143.349430
5110 -32.196796 -166.541970 -15.465596 91.789906   -36.527780 -20.660521  -0.273329  -73.104304
     -15.470783 91.736865   -19.850566 -13.772875  -0.717762  81.545487   -41.628228 -27.718630
     -37.228592 -18.168229  -0.718362  81.545146   -19.728254 -14.429434  -15.420411 91.865742
     -0.275679  -73.071133  -40.188831 -30.845007  -15.427431 91.844640   -32.076257 -148.393400
5120 -31.977836 -163.428380 -15.396439 91.471806   -36.332417 -21.039029  -0.276596  -73.269991
     -15.400940 91.403374   -19.749311 -13.725366  -0.721692  81.002741   -41.394912 -28.826645
     -37.057470 -18.523267  -0.721905  80.986390   -19.648936 -15.240764  -15.350631 91.514350
     -0.277826  -73.247113  -39.865287 -31.669209  -15.362576 91.535433   -31.921943 -153.942930
5130 -31.761285 -161.115130 -15.327406 91.136082   -36.113417 -21.496777  -0.279359  -73.451434
     -15.330666 91.071061   -19.684836 -13.711794  -0.724147  80.446808   -41.151215 -29.908673
     -36.846289 -19.401662  -0.724450  80.420632   -19.582691 -16.146350  -15.286130 91.161418
     -0.281160  -73.415023  -39.619729 -32.438351  -15.295542 91.204038   -31.530822 -157.987160
5140 -31.543279 -159.873070 -15.260276 90.781368   -35.877830 -22.257696  -0.280575  -73.623842
     -15.262946 90.725441   -19.647660 -13.800197  -0.725883  79.899357   -40.871641 -30.696444
     -36.615982 -20.031586  -0.728126  79.866549   -19.539314 -17.037086  -15.220546 90.799251
     -0.284513  -73.589915  -39.366296 -33.022984  -15.228481 90.886609   -30.974783 -160.095780
5150 -31.334162 -160.082610 -15.194602 90.455167   -35.677493 -23.264291  -0.282532  -73.761054
     -15.194913 90.398554   -19.653439 -13.917092  -0.728464  79.380803   -40.641282 -31.544193
     -36.342950 -21.195944  -0.729736  79.332861   -19.513454 -17.859790  -15.155902 90.483907
     -0.285297  -73.728831  -39.211756 -34.032363  -15.158416 90.583233   -30.493085 -159.948900
5160 -31.182936 -161.605720 -15.128646 90.140603   -35.481458 -24.213257  -0.285120  -73.898218
     -15.130773 90.095469   -19.672627 -14.264252  -0.732269  78.860096   -40.456550 -32.066146
     -36.150416 -22.254600  -0.733318  78.805617   -19.477034 -18.596327  -15.092007 90.169324
     -0.287344  -73.866412  -39.093440 -34.560773  -15.089908 90.258106   -30.069511 -158.382470
5170 -31.110143 -163.971880 -15.064860 89.818235   -35.293955 -25.207116  -0.288694  -74.068472
     -15.067008 89.754027   -19.651429 -14.937063  -0.735637  78.310087   -40.231879 -33.156081
     -35.999803 -23.540689  -0.738460  78.264643   -19.431229 -19.173694  -15.027275 89.839027
     -0.290851  -74.032552  -38.928812 -34.515078  -15.022864 89.906425   -29.788531 -155.822550
5180 -31.172151 -166.672280 -15.000199 89.482732   -35.194595 -25.982283  -0.291138  -74.239069
     -15.001858 89.424576   -19.636186 -15.889748  -0.738602  77.753907   -40.075629 -33.962979
     -35.906047 -24.938467  -0.740965  77.713573   -19.376013 -19.483438  -14.966267 89.498374
     -0.294450  -74.211762  -38.772647 -34.584285  -14.959804 89.553278   -29.675197 -152.660320
5190 -31.219732 -169.794640 -14.935665 89.141176   -35.099787 -26.812775  -0.293195  -74.407507
     -14.938833 89.096441   -19.564442 -16.996877  -0.741836  77.199621   -39.811151 -34.713324
     -35.815736 -26.111783  -0.744691  77.164795   -19.290848 -19.724745  -14.903169 89.191613
     -0.295088  -74.371813  -38.576109 -34.383141  -14.896137 89.223647   -29.696025 -149.712410
5200 -31.292989 -172.427300 -14.873783 88.840022   -35.041729 -27.598455  -0.295152  -74.546464
     -14.875695 88.800006   -19.445031 -18.234844  -0.745886  76.672450   -39.604959 -34.955444
     -35.715470 -26.852635  -0.748958  76.643593   -19.175193 -19.832837  -14.838285 88.893426
     -0.297557  -74.519688  -38.368956 -34.636761  -14.834903 88.902687   -29.827793 -146.503310
5210 -31.412813 -174.134910 -14.812571 88.519016   -34.942489 -28.131672  -0.298929  -74.688149
     -14.814740 88.488601   -19.281995 -19.392336  -0.752024  76.152274   -39.351967 -35.235929
     -35.618843 -27.405902  -0.754875  76.116525   -19.019852 -19.981956  -14.777208 88.588432
     -0.299103  -74.654853  -38.151127 -34.693678  -14.776819 88.593117   -30.106423 -144.594590
5220 -31.561162 -174.675900 -14.752553 88.194225   -34.849379 -28.318283  -0.301539  -74.860117
     -14.752884 88.159338   -19.073650 -20.301639  -0.757368  75.607445   -39.137182 -35.707535
     -35.513515 -27.791267  -0.760810  75.568587   -18.874928 -20.062430  -14.716029 88.261337
     -0.301424  -74.827677  -37.929582 -34.617778  -14.719556 88.270927   -30.417889 -143.612440
5230 -31.768796 -173.910980 -14.691563 87.874023   -34.727233 -28.494958  -0.303843  -75.035724
     -14.693254 87.842968   -18.844631 -20.906683  -0.762113  75.053334   -38.906156 -36.328767
     -35.369602 -28.188710  -0.767195  75.011617   -18.711738 -20.290886  -14.653125 87.942110
     -0.305031  -75.005194  -37.704207 -34.620111  -14.660459 87.944861   -30.834863 -144.215270
5240 -31.925626 -171.701690 -14.633510 87.559305   -34.557039 -28.648267  -0.306411  -75.211067
     -14.629488 87.514251   -18.625791 -21.342284  -0.767385  74.516716   -38.654580 -36.986325
     -35.185657 -28.391138  -0.772347  74.462352   -18.551450 -20.660354  -14.590950 87.600058
     -0.306541  -75.170449  -37.489028 -35.043315  -14.599626 87.630818   -31.111979 -145.951650
5250 -32.071767 -169.253490 -14.571041 87.264972   -34.377922 -28.844578  -0.309499  -75.357885
     -14.569947 87.212833   -18.415329 -21.502208  -0.772181  74.003297   -38.421103 -37.477966
     -34.997122 -28.510063  -0.776063  73.937754   -18.390644 -21.041824  -14.527049 87.278259
     -0.309756  -75.310916  -37.309327 -35.630983  -14.538254 87.352750   -31.373127 -148.606350
5260 -32.151798 -166.939620 -14.510609 86.970468   -34.136043 -29.186845  -0.312553  -75.499300
     -14.511260 86.911428   -18.234565 -21.460950  -0.777654  73.503215   -38.164610 -38.082439
     -34.767146 -28.746017  -0.781964  73.419639   -18.247347 -21.646208  -14.468919 86.949404
     -0.312521  -75.452462  -37.081446 -36.500448  -14.473415 87.060550   -31.354019 -151.830470
5270 -32.117072 -165.921520 -14.447749 86.648431   -33.898444 -29.645854  -0.316366  -75.668256
     -14.450117 86.587539   -18.099002 -21.252467  -0.784161  72.966982   -37.915978 -39.324441
     -34.508163 -29.465066  -0.786244  72.878447   -18.127629 -22.206484  -14.407398 86.620712
     -0.315397  -75.624539  -36.900100 -37.450661  -14.407309 86.749608   -31.134258 -154.312970
5280 -32.084498 -165.950190 -14.384587 86.307008   -33.665642 -30.584000  -0.316419  -75.843375
     -14.389103 86.269094   -17.998121 -20.929227  -0.788242  72.434253   -37.678005 -40.699284
     -34.270984 -30.474362  -0.791915  72.330335   -18.045520 -22.994231  -14.346665 86.284801
     -0.317445  -75.800176  -36.770431 -38.299258  -14.342667 86.399306   -30.783440 -155.786870
5290 -31.957186 -167.499740 -14.322678 85.976640   -33.445188 -31.574722  -0.318805  -76.024596
     -14.326465 85.937819   -17.944684 -20.649176  -0.792810  71.895094   -37.442444 -41.842289
     -33.986132 -31.870693  -0.795458  71.800228   -17.979106 -23.813729  -14.288404 85.971871
     -0.318900  -75.983188  -36.695571 -38.942171  -14.278519 86.052573   -30.313640 -155.591630
5300 -31.682868 -169.819570 -14.265279 85.647821   -33.277286 -32.946679  -0.321183  -76.175158
     -14.270570 85.619627   -17.919816 -20.442781  -0.795547  71.377467   -37.270786 -42.516381
     -33.727890 -33.261752  -0.799974  71.292672   -17.943918 -24.683409  -14.230261 85.667385
     -0.321719  -76.129587  -36.609478 -39.288608  -14.218924 85.703942   -29.928983 -153.547250
5310 -31.524812 -173.086110 -14.210149 85.325415   -33.096331 -34.324046  -0.325137  -76.315267
     -14.213526 85.290305   -17.917626 -20.499328  -0.800623  70.865814   -37.147894 -43.395420
     -33.551565 -34.875873  -0.804072  70.787102   -17.901367 -25.534974  -14.171908 85.377428
     -0.324667  -76.279315  -36.443702 -39.492984  -14.165818 85.369275   -29.612007 -150.830050
5320 -31.271710 -176.813480 -14.156033 85.014748   -32.997457 -35.585897  -0.330236  -76.485661
     -14.157178 84.968166   -17.931608 -20.669249  -0.804335  70.317442   -36.970546 -43.915598
     -33.384277 -36.550185  -0.808337  70.255885   -17.890086 -26.244057  -14.112733 85.057161
     -0.328613  -76.446639  -36.296760 -39.479847  -14.110331 85.028959   -29.325389 -148.108170
5330 -31.129923 -179.167160 -14.100356 84.703092   -32.933260 -36.811433  -0.332531  -76.648004
     -14.104245 84.645840   -17.948028 -21.173135  -0.808934  69.763900   -36.860598 -44.388266
     -33.331728 -38.131127  -0.811404  69.702449   -17.873541 -26.905613  -14.054105 84.730790
     -0.333230  -76.619052  -36.102778 -39.607004  -14.058112 84.699268   -29.200378 -145.009780
5340 -31.083022 178.489410  -14.042257 84.398005   -32.885410 -37.714024  -0.335800  -76.814679
     -14.043784 84.345529   -17.944735 -21.876963  -0.812798  69.209917   -36.635735 -44.745004
     -33.299187 -39.600536  -0.813107  69.149429   -17.844445 -27.434633  -13.990642 84.395588
     -0.335831  -76.775681  -35.904019 -39.928852  -14.004847 84.388608   -29.224040 -142.807830
5350 -31.172124 178.056880  -13.985024 84.106426   -32.835660 -38.719377  -0.338127  -76.954762
     -13.985518 84.055883   -17.907629 -22.670257  -0.815639  68.697237   -36.429675 -44.679599
     -33.288097 -40.180333  -0.815802  68.611808   -17.800639 -27.900638  -13.933908 84.063572
     -0.340336  -76.914085  -35.669316 -40.400830  -13.950898 84.119460   -29.459234 -140.811410
5360 -31.407430 179.104730  -13.922664 83.793997   -32.788077 -39.668286  -0.342048  -77.093693
     -13.926043 83.751054   -17.841946 -23.633533  -0.819388  68.174840   -36.208368 -44.506380
     -33.269225 -40.413118  -0.820041  68.080578   -17.732416 -28.216710  -13.879604 83.716289
     -0.343656  -77.049902  -35.472890 -41.292772  -13.891270 83.832764   -29.853413 -139.762890
5370 -31.753549 -178.476430 -13.861746 83.445203   -32.747050 -40.071357  -0.344482  -77.260255
     -13.864935 83.422833   -17.737235 -24.420753  -0.825488  67.638346   -35.983000 -44.943781
     -33.233721 -40.668163  -0.826966  67.516641   -17.645560 -28.488518  -13.826202 83.374227
     -0.345247  -77.200882  -35.324474 -41.830076  -13.831424 83.511350   -30.345578 -139.853470
5380 -32.103521 -174.853150 -13.805651 83.076745   -32.693278 -40.355888  -0.346125  -77.446637
     -13.806519 83.060285   -17.623710 -25.054864  -0.830925  67.093398   -35.708463 -45.779452
     -33.149322 -40.791291  -0.832025  66.948224   -17.547899 -28.874201  -13.771813 83.031721
     -0.346203  -77.387213  -35.225674 -42.144338  -13.771312 83.170801   -30.808476 -142.050400
5390 -32.351614 -170.918210 -13.750625 82.725443   -32.623411 -40.515840  -0.347921  -77.626007
     -13.748302 82.718612   -17.506169 -25.515546  -0.834985  66.551835   -35.443337 -46.855406
     -32.962703 -41.058082  -0.837489  66.402409   -17.436790 -29.252749  -13.717649 82.705822
     -0.347050  -77.568013  -35.168800 -42.829881  -13.711415 82.815969   -31.257398 -145.542410
5400 -32.444580 -166.447720 -13.700478 82.405918   -32.490329 -40.732092  -0.350570  -77.784236
     -13.695019 82.384874   -17.377076 -25.849156  -0.839373  66.043608   -35.286041 -47.828557
     -32.769406 -41.063535  -0.842484  65.890390   -17.328325 -29.861275  -13.663693 82.395224
     -0.348162  -77.729833  -35.045525 -43.394781  -13.655713 82.467034   -31.494962 -149.022150
5410 -32.436062 -162.836490 -13.650020 82.101377   -32.332044 -40.734674  -0.354076  -77.923660
     -13.644199 82.048508   -17.269355 -26.030894  -0.845055  65.532444   -35.144720 -48.627159
     -32.579073 -41.283917  -0.848370  65.390010   -17.216716 -30.491520  -13.611993 82.082527
     -0.351429  -77.887057  -34.908144 -44.321873  -13.602593 82.114434   -31.447444 -152.056220
5420 -32.387542 -161.939940 -13.600948 81.785544   -32.158856 -40.933873  -0.357788  -78.091855
     -13.594205 81.709825   -17.172601 -26.096261  -0.849579  64.985735   -35.056800 -50.011034
     -32.394477 -41.953675  -0.852817  64.864701   -17.150478 -31.173190  -13.557706 81.761125
     -0.354579  -78.061460  -34.776235 -44.945103  -13.552937 81.773445   -31.185182 -154.455140
5430 -32.340126 -162.518680 -13.549439 81.475197   -31.986698 -41.299447  -0.361896  -78.263700
     -13.546524 81.391533   -17.108169 -26.194125  -0.856295  64.435972   -34.976862 -50.902896
     -32.213461 -42.716998  -0.856769  64.332447   -17.105241 -31.933763  -13.505653 81.435880
     -0.359374  -78.234983  -34.673716 -45.489111  -13.506212 81.439846   -30.730817 -154.639970
5440 -32.233019 -164.775200 -13.497832 81.169504   -31.799932 -41.959724  -0.364611  -78.430850
     -13.496241 81.092181   -17.081056 -26.310722  -0.860824  63.894208   -34.887293 -51.439498
     -32.023937 -43.585651  -0.861129  63.791252   -17.069584 -32.644178  -13.451681 81.136435
     -0.363347  -78.401611  -34.602815 -46.098366  -13.457137 81.140469   -30.282806 -153.208660
5450 -32.265962 -167.625350 -13.444684 80.880938   -31.624814 -42.910298  -0.368417  -78.565146
     -13.442188 80.811771   -17.064756 -26.641865  -0.864196  63.381996   -34.807262 -51.438395
     -31.867642 -44.326448  -0.863320  63.279915   -17.043876 -33.338930  -13.398337 80.838662
     -0.367307  -78.541318  -34.470688 -46.916251  -13.404617 80.875042   -29.897921 -149.895860
5460 -32.327840 -171.123180 -13.389015 80.575113   -31.453747 -44.133385  -0.373234  -78.702863
     -13.387268 80.521608   -17.058892 -27.047375  -0.870049  62.869230   -34.708030 -51.107148
     -31.727402 -45.075734  -0.868003  62.745250   -17.012389 -34.002273  -13.344211 80.529356
     -0.371605  -78.670424  -34.430430 -47.291288  -13.352824 80.596489   -29.634939 -146.066180
5470 -32.444285 -175.061840 -13.333256 80.249830   -31.322927 -45.241805  -0.376376  -78.857754
     -13.332772 80.203585   -17.051769 -27.516630  -0.876375  62.338263   -34.574870 -51.032245
     -31.609365 -46.044909  -0.873045  62.188630   -16.955496 -34.490145  -13.290135 80.193268
     -0.374395  -78.833239  -34.354106 -47.393601  -13.298738 80.290296   -29.462925 -141.660020
5480 -32.620134 -178.493760 -13.276799 79.900505   -31.260078 -46.250942  -0.378155  -79.038116
     -13.277147 79.882529   -17.031790 -28.180637  -0.882562  61.786807   -34.428229 -50.966386
     -31.500401 -47.009933  -0.877196  61.619522   -16.897827 -34.801079  -13.236905 79.825223
     -0.377304  -79.006121  -34.316177 -47.390499  -13.241837 79.948183   -29.421954 -137.367140
5490 -32.829512 179.234870  -13.220967 79.557736   -31.208046 -47.181259  -0.380565  -79.202723
     -13.222298 79.543031   -16.989594 -28.990274  -0.885950  61.248470   -34.256553 -51.154081
     -31.421896 -47.771237  -0.879954  61.062778   -16.816166 -35.065698  -13.186060 79.488917
     -0.379227  -79.180784  -34.247487 -47.532308  -13.186511 79.606687   -29.555768 -133.501080
5500 -33.151698 178.547790  -13.168485 79.222311   -31.149273 -47.904051  -0.381702  -79.352205
     -13.167910 79.217868   -16.911420 -29.873866  -0.890190  60.739121   -34.043703 -51.320618
     -31.338964 -48.243871  -0.884343  60.543680   -16.713320 -35.335948  -13.133126 79.168903
     -0.380281  -79.330655  -34.113968 -47.956030  -13.131753 79.284723   -29.808698 -130.891660
5510 -33.468071 179.995940  -13.117620 78.890443   -31.114387 -48.249396  -0.382626  -79.497835
     -13.115578 78.882967   -16.798840 -30.746984  -0.895458  60.233549   -33.872353 -51.800276
     -31.277848 -48.515550  -0.890101  60.036813   -16.598317 -35.535579  -13.080931 78.839823
     -0.382398  -79.473923  -33.954306 -48.349075  -13.076344 78.958047   -30.192130 -129.099760
5520 -33.653155 -177.272300 -13.068190 78.553346   -31.091531 -48.617048  -0.385522  -79.678150
     -13.065541 78.517446   -16.675112 -31.373651  -0.900972  59.688262   -33.676545 -52.561779
     -31.195019 -48.861715  -0.895505  59.511864   -16.505853 -35.748443  -13.029787 78.497968
     -0.385312  -79.648976  -33.778618 -48.669356  -13.025577 78.601276   -30.612938 -129.827790
5530 -33.670431 -173.715250 -13.021084 78.197463   -31.025722 -48.633543  -0.387142  -79.868884
     -13.016647 78.164443   -16.550990 -31.810639  -0.906032  59.141478   -33.495217 -53.357273
     -31.091923 -49.223064  -0.901680  58.977177   -16.418051 -36.170172  -12.982734 78.144565
     -0.387339  -79.826822  -33.635031 -49.048470  -12.977235 78.246390   -30.882050 -132.712710
5540 -33.476123 -169.758560 -12.974220 77.871910   -30.959858 -48.575056  -0.390336  -80.052655
     -12.969234 77.815843   -16.443642 -32.030191  -0.909651  58.602400   -33.378936 -54.195278
     -30.973963 -49.531285  -0.906837  58.450723   -16.360332 -36.669843  -12.934774 77.805168
     -0.388506  -80.002194  -33.481738 -49.522538  -12.928521 77.894392   -31.043960 -136.113810
5550 -33.199970 -166.517720 -12.929024 77.564298   -30.790782 -48.886091  -0.392995  -80.210144
     -12.924528 77.485403   -16.367814 -32.118031  -0.913782  58.093042   -33.259034 -54.538930
     -30.835799 -49.654416  -0.911793  57.950174   -16.309353 -37.474871  -12.886876 77.495883
     -0.391073  -80.148452  -33.345194 -50.364711  -12.884651 77.559256   -30.874396 -139.577700
5560 -32.832996 -164.917000 -12.885375 77.264440   -30.604749 -49.412267  -0.396870  -80.364294
     -12.880531 77.194125   -16.317799 -32.201645  -0.919728  57.579474   -33.164206 -54.691790
     -30.698960 -49.958484  -0.915731  57.446977   -16.275416 -38.329149  -12.838310 77.185860
     -0.394110  -80.298854  -33.190766 -50.982035  -12.841440 77.246792   -30.506159 -141.660800
5570 -32.505507 -165.052670 -12.837899 76.957968   -30.394713 -49.904047  -0.401323  -80.535536
     -12.834193 76.877955   -16.296203 -32.201177  -0.924893  57.043349   -33.055961 -54.726792
     -30.543564 -50.543933  -0.921202  56.900644   -16.259073 -39.123820  -12.790080 76.847170
     -0.397505  -80.474213  -33.075430 -51.372084  -12.796850 76.909772   -29.890250 -142.278800
5580 -32.156089 -167.902230 -12.789488 76.638880   -30.214420 -50.793307  -0.407545  -80.705920
     -12.787573 76.567775   -16.312105 -32.353350  -0.931040  56.496143   -32.913237 -54.795390
     -30.375881 -51.484899  -0.924044  56.339339   -16.239841 -39.856546  -12.742770 76.514464
     -0.402755  -80.667542  -32.981102 -51.889080  -12.751176 76.597956   -29.255439 -141.245170
5590 -32.036294 -171.040480 -12.738918 76.322828   -30.051270 -51.969527  -0.410715  -80.854653
     -12.738762 76.258732   -16.341519 -32.769497  -0.935398  55.955888   -32.746699 -54.654655
     -30.225123 -52.435243  -0.926510  55.777902   -16.221042 -40.469376  -12.694170 76.177210
     -0.407108  -80.839291  -32.872234 -52.408821  -12.701964 76.298582   -28.637132 -138.266550
5600 -32.074687 -173.961980 -12.690276 76.006015   -29.947084 -53.291665  -0.414658  -80.969614
     -12.688902 75.961945   -16.365838 -33.543712  -0.938089  55.443690   -32.572812 -54.773295
     -30.115790 -53.168760  -0.929583  55.253635   -16.190312 -40.921277  -12.646429 75.873174
     -0.411173  -80.969861  -32.749977 -52.908115  -12.651783 75.987026   -28.176251 -134.285880
5610 -32.159484 -177.093820 -12.638557 75.684444   -29.868976 -54.445130  -0.417212  -81.081393
     -12.636341 75.657509   -16.370701 -34.546253  -0.944052  54.930821   -32.380535 -55.281726
     -30.006368 -54.038818  -0.933925  54.715380   -16.127814 -41.127673  -12.597656 75.558338
     -0.414488  -81.101665  -32.649640 -53.408463  -12.603010 75.676556   -27.904559 -130.149320
5620 -32.325117 -179.929710 -12.590757 75.331816   -29.851327 -55.379474  -0.418443  -81.250636
     -12.586480 75.306474   -16.350935 -35.663843  -0.949169  54.381211   -32.208131 -55.715423
     -29.916571 -54.994295  -0.940027  54.171110   -16.059276 -41.152888  -12.550168 75.218087
     -0.417901  -81.266438  -32.542958 -53.431341  -12.553492 75.335555   -27.690168 -126.088070
5630 -32.655596 177.574040  -12.543854 74.968201   -29.889333 -56.102082  -0.417860  -81.437982
     -12.536890 74.933141   -16.290311 -36.903830  -0.954679  53.814680   -32.046874 -56.475165
     -29.861906 -56.158429  -0.945052  53.622248   -15.977420 -41.115011  -12.503837 74.858703
     -0.421733  -81.437284  -32.415824 -53.633982  -12.504672 74.990791   -27.751653 -122.363440
5640 -33.155020 178.007200  -12.498968 74.609244   -29.910525 -56.583434  -0.417126  -81.623887
     -12.492743 74.567014   -16.171061 -38.147242  -0.958845  53.275524   -31.909856 -57.169186
     -29.866307 -56.800409  -0.950896  53.091218   -15.881350 -41.126102  -12.460792 74.504355
     -0.420970  -81.599915  -32.233856 -54.012690  -12.459099 74.642486   -27.983069 -119.349740
5650 -33.859309 -178.899790 -12.457224 74.291516   -29.885914 -56.848916  -0.418131  -81.780943
     -12.450792 74.233463   -16.018089 -39.260707  -0.965381  52.756978   -31.808701 -57.458744
     -29.907647 -57.036822  -0.957087  52.598093   -15.768360 -41.288662  -12.418840 74.209754
     -0.419876  -81.738270  -32.036431 -54.829088  -12.416102 74.312060   -28.451225 -116.752250
5660 -34.381238 -172.984820 -12.417050 73.975793   -29.826731 -56.610367  -0.421155  -81.957417
     -12.412169 73.918949   -15.827582 -40.093967  -0.973733  52.250113   -31.688965 -57.752850
     -29.900125 -56.784522  -0.963449  52.104066   -15.649186 -41.478874  -12.376764 73.906339
     -0.420202  -81.891371  -31.818517 -55.560881  -12.378116 73.998360   -29.042122 -115.788740
5670 -34.725588 -166.358020 -12.377634 73.664096   -29.734647 -56.339714  -0.426512  -82.148770
     -12.371871 73.607295   -15.649629 -40.587279  -0.983055  51.711426   -31.562288 -58.074185
     -29.846075 -56.653930  -0.971153  51.577425   -15.541319 -41.836048  -12.333963 73.578773
     -0.423898  -82.074991  -31.661746 -56.305943  -12.338679 73.665778   -29.674481 -116.724720
5680 -34.589160 -158.606130 -12.336955 73.339327   -29.635278 -56.263821  -0.432237  -82.337447
     -12.332123 73.301816   -15.499833 -40.802435  -0.990937  51.165240   -31.434138 -58.433503
     -29.728295 -56.275098  -0.976877  51.024667   -15.458800 -42.362845  -12.291405 73.249491
     -0.427652  -82.272586  -31.553115 -57.358928  -12.296670 73.353505   -30.210231 -119.411390
5690 -34.356357 -152.970370 -12.292168 73.041141   -29.468154 -56.172328  -0.440307  -82.494438
     -12.290388 73.009479   -15.371174 -40.734330  -0.997725  50.648418   -31.283215 -58.897911
     -29.573443 -56.054750  -0.982243  50.488916   -15.374464 -43.062757  -12.250180 72.927130
     -0.432804  -82.449442  -31.477719 -58.216881  -12.256131 73.046045   -30.515521 -122.955760
5700 -34.007783 -148.079570 -12.250699 72.755600   -29.273437 -56.511856  -0.443462  -82.612543
     -12.247315 72.737638   -15.283474 -40.566918  -1.003140  50.165614   -31.199629 -59.365723
     -29.374728 -55.907135  -0.987905  49.975525   -15.309160 -43.997757  -12.207859 72.610298
     -0.437055  -82.590518  -31.393475 -59.010918  -12.212729 72.765442   -30.451918 -125.569980
5710 -33.677838 -146.032810 -12.208144 72.479048   -29.041218 -56.872780  -0.445578  -82.730049
     -12.202628 72.471576   -15.224631 -40.379060  -1.010332  49.675544   -31.105711 -59.951091
     -29.151134 -56.244525  -0.994920  49.487329   -15.232713 -44.994372  -12.162958 72.307571
     -0.441309  -82.724847  -31.302703 -59.725198  -12.165701 72.469406   -30.015664 -127.384070
5720 -33.328153 -146.841120 -12.164586 72.194746   -28.857066 -57.576451  -0.448612  -82.882628
     -12.153649 72.171799   -15.209813 -40.135913  -1.016303  49.159655   -30.977249 -60.896093
     -28.908596 -56.972601  -1.001107  48.967505   -15.185972 -45.877052  -12.116221 71.984406
     -0.445332  -82.891099  -31.236371 -60.215577  -12.117223 72.150958   -29.433631 -128.740200
5730 -33.198560 -149.512730 -12.116933 71.876867   -28.693143 -58.437806  -0.448101  -83.057796
     -12.107553 71.839695   -15.221454 -40.125820  -1.021699  48.630840   -30.903180 -61.662296
     -28.727839 -58.227259  -1.004723  48.444912   -15.150592 -46.672282  -12.070318 71.638759
     -0.447756  -83.068786  -31.168794 -60.737546  -12.071185 71.806131   -28.775560 -127.732110
5740 -33.259381 -152.516050 -12.072474 71.571549   -28.551033 -59.714734  -0.448630  -83.245972
     -12.062165 71.509599   -15.239806 -40.332649  -1.026321  48.099248   -30.783453 -62.167246
     -28.598394 -59.545227  -1.008985  47.942798   -15.117975 -47.360205  -12.022133 71.310285
     -0.448603  -83.235003  -31.048915 -61.045602  -12.024291 71.459259   -28.187875 -125.795990
5750 -33.452536 -154.657570 -12.027055 71.266683   -28.428003 -61.069464  -0.449888  -83.400637
     -12.018904 71.198840   -15.254875 -40.899740  -1.029923  47.593261   -30.681900 -62.386057
     -28.538307 -60.696059  -1.012373  47.449404   -15.075072 -47.884608  -11.976789 70.997904
     -0.449485  -83.383457  -30.870675 -61.544657  -11.980009 71.135569   -27.761040 -122.356100
5760 -33.807243 -156.392510 -11.982715 70.955879   -28.349399 -62.183671  -0.452153  -83.546244
     -11.976397 70.877371   -15.246683 -41.786185  -1.036635  47.082290   -30.554694 -62.734948
     -28.517613 -61.760196  -1.016378  46.960055   -15.018876 -48.107775  -11.934570 70.698024
     -0.449881  -83.523945  -30.659568 -62.000048  -11.941330 70.818822   -27.548872 -118.650570
5770 -34.235427 -156.947740 -11.939093 70.617756   -28.338468 -63.241251  -0.457370  -83.732749
     -11.933715 70.541714   -15.237273 -42.757440  -1.041556  46.532975   -30.392586 -62.981107
     -28.520788 -62.855148  -1.020036  46.421402   -14.974977 -48.151943  -11.894249 70.360178
     -0.453048  -83.694999  -30.508110 -62.566259  -11.901393 70.485243   -27.432012 -115.468800
5780 -34.763981 -155.509260 -11.896912 70.266073   -28.376799 -63.970168  -0.459258  -83.904625
     -11.891439 70.198649   -15.191571 -43.800583  -1.046557  45.968859   -30.266242 -63.443459
     -28.550458 -63.658529  -1.027107  45.861902   -14.927465 -48.087175  -11.853816 70.024362
     -0.457384  -83.865450  -30.365102 -63.024525  -11.861998 70.164190   -27.525429 -112.198000
5790 -35.150171 -150.744460 -11.856350 69.922280   -28.422784 -64.413286  -0.463573  -84.064313
     -11.851546 69.871644   -15.121904 -44.879771  -1.052404  45.420563   -30.114023 -63.838589
     -28.572679 -64.006213  -1.034219  45.314894   -14.875907 -48.008210  -11.815376 69.702342
     -0.461037  -84.016858  -30.210915 -63.661338  -11.822283 69.847040   -27.795035 -109.742450
5800 -35.399723 -143.194880 -11.814080 69.605767   -28.385803 -64.697714  -0.466733  -84.206804
     -11.808907 69.552199   -15.023083 -46.001251  -1.056581  44.912004   -30.001022 -64.352506
     -28.577716 -63.991796  -1.038323  44.811413   -14.820596 -48.154549  -11.774287 69.398470
     -0.461858  -84.143233  -30.030284 -64.626735  -11.781978 69.555920   -28.169275 -107.796950
5810 -35.463085 -135.425080 -11.775905 69.299085   -28.311920 -64.652812  -0.471372  -84.333522
     -11.769649 69.248318   -14.902217 -46.828305  -1.064433  44.409375   -29.884889 -65.191201
     -28.544784 -63.919196  -1.046677  44.311985   -14.751686 -48.412205  -11.737174 69.104389
     -0.466875  -84.279772  -29.874007 -65.316373  -11.743142 69.265795   -28.720001 -106.944290
5820 -35.066942 -129.797890 -11.738465 68.973319   -28.207292 -64.531002  -0.476046  -84.501282
     -11.729853 68.944086   -14.793620 -47.338984  -1.070153  43.891218   -29.768058 -65.897741
     -28.430737 -63.814765  -1.053039  43.780885   -14.692455 -48.816313  -11.697223 68.781723
     -0.471110  -84.449328  -29.778261 -66.152298  -11.704887 68.950458   -29.108845 -108.104940
5830 -34.691115 -126.952750 -11.698716 68.669741   -28.074794 -64.433666  -0.481170  -84.670961
     -11.689373 68.628487   -14.697889 -47.667880  -1.077215  43.361441   -29.637864 -66.581904
     -28.254326 -63.795712  -1.058837  43.250806   -14.638380 -49.298416  -11.655557 68.465465
     -0.476325  -84.640962  -29.705184 -67.030926  -11.663674 68.629328   -29.238263 -110.704350
5840 -34.420705 -125.448740 -11.659431 68.366586   -27.898700 -64.623206  -0.484002  -84.828626
     -11.647110 68.313764   -14.616975 -47.828349  -1.082354  42.842195   -29.552119 -67.287512
     -28.068286 -63.972686  -1.062258  42.731686   -14.592609 -49.945591  -11.612369 68.138691
     -0.479629  -84.818738  -29.653796 -67.823085  -11.621921 68.301502   -29.058070 -113.186190
5850 -34.367277 -126.069090 -11.619168 68.089014   -27.695560 -64.942573  -0.483899  -84.960026
     -11.606373 68.037144   -14.546104 -47.929602  -1.091461  42.359508   -29.514753 -68.082642
     -27.878463 -64.367380  -1.069432  42.250680   -14.538969 -50.624163  -11.571493 67.816534
     -0.482690  -84.960488  -29.582315 -68.388695  -11.579002 67.990035   -28.616497 -114.473880
5860 -34.693250 -128.715470 -11.578370 67.808702   -27.487636 -65.623930  -0.484519  -85.096675
     -11.568403 67.745986   -14.504195 -48.010338  -1.097103  41.867166   -29.507009 -68.948418
     -27.692093 -65.132132  -1.075862  41.769119   -14.500387 -51.358343  -11.529881 67.485726
     -0.486289  -85.095228  -29.514301 -68.821311  -11.538571 67.659578   -28.049511 -114.626080
5870 -35.098653 -133.149160 -11.537066 67.499377   -27.324302 -66.468014  -0.484331  -85.278218
     -11.529799 67.438454   -14.500509 -48.204639  -1.103796  41.341355   -29.472488 -69.484834
     -27.527678 -66.099929  -1.081440  41.254452   -14.475762 -51.967835  -11.490096 67.136865
     -0.487919  -85.266005  -29.448991 -69.338582  -11.498650 67.310182   -27.289768 -113.930720
5880 -35.560251 -138.703220 -11.493820 67.186453   -27.196732 -67.537641  -0.483031  -85.493050
     -11.490198 67.124588   -14.502974 -48.466966  -1.106772  40.796951   -29.452840 -69.819110
     -27.396168 -67.217533  -1.085613  40.739673   -14.457062 -52.433086  -11.449606 66.778399
     -0.488165  -85.457991  -29.375368 -69.646865  -11.458646 66.959092   -26.515184 -111.876510
5890 -36.307592 -144.258340 -11.452547 66.862204   -27.105275 -68.747596  -0.485042  -85.700527
     -11.448225 66.793193   -14.510831 -49.031813  -1.109886  40.253553   -29.411223 -70.037239
     -27.303396 -68.374260  -1.090570  40.216635   -14.447334 -52.786545  -11.410887 66.435969
     -0.487054  -85.644426  -29.250927 -70.195239  -11.419714 66.624609   -25.883719 -109.071700
5900 -37.335644 -148.721000 -11.409738 66.538210   -26.986247 -70.097443  -0.492648  -85.869674
     -11.407230 66.481324   -14.507760 -49.847755  -1.114154  39.738448   -29.315146 -70.411123
     -27.254958 -69.463678  -1.092838  39.719745   -14.413225 -53.100160  -11.373942 66.110764
     -0.489576  -85.811789  -29.104125 -70.791930  -11.381417 66.302821   -25.485944 -105.748960
5910 -38.817816 -151.103320 -11.370846 66.213313   -26.905989 -71.256145  -0.502575  -86.004437
     -11.365746 66.156503   -14.470824 -50.809949  -1.119335  39.226644   -29.210536 -70.647534
     -27.232860 -70.543057  -1.098836  39.215433   -14.363099 -53.280861  -11.339927 65.797024
     -0.493644  -85.959009  -28.927809 -71.236722  -11.347071 65.990457   -25.271865 -101.961920
5920 -40.295220 -151.634470 -11.334197 65.869759   -26.891296 -72.223984  -0.511881  -86.152771
     -11.328478 65.813972   -14.433914 -51.729195  -1.128311  38.675385   -29.035287 -70.860727
     -27.185769 -71.567592  -1.106061  38.653923   -14.313316 -53.288488  -11.306582 65.498914
     -0.503847  -86.134079  -28.830955 -71.803639  -11.314904 65.670953   -25.142165 -98.767755
5930 -41.671380 -145.452290 -11.296355 65.538802   -26.908772 -73.026122  -0.521369  -86.279086
     -11.290232 65.487090   -14.382375 -52.656786  -1.136729  38.116976   -28.864776 -71.301616
     -27.145136 -72.303062  -1.112647  38.090782   -14.258595 -53.313394  -11.274431 65.212123
     -0.513773  -86.296013  -28.740309 -72.405166  -11.284801 65.365388   -25.189163 -95.642499
5940 -42.168211 -132.266210 -11.260743 65.222020   -26.902886 -73.550897  -0.525381  -86.403179
     -11.252256 65.169223   -14.308621 -53.522605  -1.144273  37.578362   -28.702008 -71.937668
     -27.090003 -72.821620  -1.120953  37.548290   -14.195914 -53.467709  -11.237259 64.938003
     -0.521459  -86.428457  -28.633080 -72.901666  -11.252647 65.097228   -25.299711 -93.127477
5950 -42.030484 -117.817340 -11.220655 64.944468   -26.869328 -73.752713  -0.525076  -86.489128
     -11.211951 64.883873   -14.205188 -54.303058  -1.154046  37.074609   -28.573969 -72.737575
     -27.022665 -73.348095  -1.128186  37.049916   -14.127553 -53.721811  -11.196641 64.672298
     -0.527090  -86.518772  -28.470669 -73.320099  -11.215461 64.846055   -25.523742 -91.195857
5960 -41.240525 -106.685360 -11.181323 64.650260   -26.781393 -73.857347  -0.521756  -86.600890
     -11.173654 64.580908   -14.097158 -54.785198  -1.162245  36.591279   -28.471191 -73.803125
     -26.964445 -73.786725  -1.136946  36.575197   -14.062846 -54.202031  -11.154266 64.389311
     -0.529732  -86.608956  -28.317163 -73.596745  -11.173222 64.574106   -25.826594 -90.014453
5970 -40.045097 -99.925448  -11.139848 64.330949   -26.700738 -74.007892  -0.517617  -86.773722
     -11.132086 64.262747   -13.994281 -54.974747  -1.170260  36.085541   -28.379820 -74.616818
     -26.892893 -74.269715  -1.145852  36.076813   -14.015931 -54.714557  -11.110950 64.064306
     -0.524293  -86.744536  -28.185111 -74.045718  -11.129753 64.262478   -26.047184 -90.164985
5980 -39.054314 -97.824633  -11.100944 63.997636   -26.611298 -74.436553  -0.514529  -86.987856
     -11.092603 63.929616   -13.924272 -55.031117  -1.175111  35.555745   -28.307517 -75.355817
     -26.796726 -74.783868  -1.151222  35.583041   -13.991441 -55.326294  -11.068746 63.711792
     -0.519930  -86.934278  -28.084384 -74.682125  -11.085797 63.919402   -26.141901 -90.865986
5990 -38.457132 -96.195599  -11.063405 63.672086   -26.474193 -75.169137  -0.514217  -87.213024
     -11.055456 63.604566   -13.860483 -54.989857  -1.176283  35.037317   -28.247462 -75.781143
     -26.702695 -75.311716  -1.155688  35.081463   -13.977994 -56.151951  -11.026817 63.363482
     -0.516093  -87.138309  -27.957887 -75.323923  -11.044079 63.575181   -26.050563 -91.703350
6000 -38.372083 -93.625187  -11.027887 63.366119   -26.307360 -75.858672  -0.518382  -87.397205
     -11.018361 63.300661   -13.815160 -54.986865  -1.181321  34.558621   -28.168632 -76.319573
     -26.593562 -76.027399  -1.159575  34.616814   -13.940583 -56.994006  -10.988837 63.028940
     -0.516080  -87.314672  -27.815773 -76.008779  -11.006063 63.229821   -25.908921 -91.967230
6010 -39.049164 -89.554320  -10.991722 63.071888   -26.152200 -76.944304  -0.528425  -87.545551
     -10.982252 62.996280   -13.780889 -54.885393  -1.186025  34.055443   -28.103094 -76.908814
     -26.479766 -77.110671  -1.168055  34.132769   -13.917492 -57.793345  -10.953919 62.684127
     -0.521940  -87.480689  -27.713520 -76.380905  -10.969922 62.894437   -25.708056 -91.171604
6020 -39.700323 -86.924350  -10.958001 62.761157   -26.048477 -78.161279  -0.538311  -87.696102
     -10.947080 62.680565   -13.782360 -54.958212  -1.190973  33.535974   -28.013720 -77.376936
     -26.348210 -78.236058  -1.174178  33.608497   -13.898769 -58.506480  -10.925365 62.336527
     -0.531610  -87.674208  -27.628422 -76.942121  -10.937996 62.550383   -25.407390 -89.852760
6030 -40.108522 -80.292115  -10.921726 62.442248   -25.984893 -79.450631  -0.548664  -87.854325
     -10.913075 62.369108   -13.814608 -55.168835  -1.197336  32.996121   -27.869941 -77.681617
     -26.259741 -79.428253  -1.177996  33.059859   -13.879322 -59.062314  -10.896284 62.023223
     -0.541650  -87.840589  -27.569001 -77.589430  -10.909658 62.199668   -25.123074 -88.276555
6040 -40.162418 -71.217042  -10.884476 62.125608   -25.961590 -80.638093  -0.553939  -87.986044
     -10.875790 62.048499   -13.834669 -55.617301  -1.202792  32.464196   -27.744957 -78.248079
     -26.199552 -80.731881  -1.184145  32.519146   -13.856518 -59.442140  -10.863764 61.721235
     -0.549173  -87.983286  -27.493692 -78.062894  -10.879700 61.889129   -24.878717 -85.659912
6050 -39.637245 -60.788342  -10.846748 61.831667   -25.933320 -81.566418  -0.555653  -88.082012
     -10.837515 61.750639   -13.839417 -56.463255  -1.207862  31.961001   -27.627969 -78.996098
     -26.176157 -81.917716  -1.188475  32.029540   -13.811566 -59.771779  -10.828201 61.443273
     -0.555870  -88.091403  -27.339555 -78.566286  -10.846146 61.605105   -24.745143 -82.420246
6060 -38.564659 -52.928223  -10.807926 61.523643   -25.927888 -82.389356  -0.556733  -88.185183
     -10.798641 61.435006   -13.823011 -57.311511  -1.212964  31.465030   -27.520508 -79.806290
     -26.182696 -82.993020  -1.194061  31.529570   -13.762605 -60.056751  -10.791328 61.165126
     -0.557988  -88.197202  -27.215431 -78.897912  -10.810065 61.316907   -24.736733 -79.119698
6070 -37.093707 -50.841974  -10.770979 61.183346   -26.002640 -82.946205  -0.558275  -88.337218
     -10.763799 61.080695   -13.804142 -58.296906  -1.220038  30.928798   -27.383828 -80.635584
     -26.219504 -83.638477  -1.199663  30.996353   -13.728592 -60.097753  -10.752008 60.857848
     -0.560551  -88.349457  -27.125153 -79.449546  -10.774565 61.020474   -24.892825 -76.471736
6080 -35.835958 -51.747457  -10.734993 60.829292   -26.054581 -83.220157  -0.556845  -88.501882
     -10.728856 60.719305   -13.769081 -59.252009  -1.227076  30.387382   -27.284514 -81.454675
     -26.245783 -83.995420  -1.204213  30.454683   -13.688886 -60.200136  -10.711199 60.532940
     -0.563326  -88.515409  -27.034182 -80.050258  -10.737887 60.717311   -25.097833 -73.898709
6090 -34.669699 -53.017234  -10.699549 60.480362   -26.068396 -83.338112  -0.556108  -88.664810
     -10.696678 60.363710   -13.699690 -60.117566  -1.233600  29.863841   -27.185361 -82.250543
     -26.275495 -84.103148  -1.211805  29.928716   -13.646603 -60.388937  -10.674722 60.205421
     -0.565080  -88.669358  -26.938136 -80.655076  -10.703446 60.401426   -25.427086 -72.072313
6100 -33.803522 -53.819301  -10.667499 60.146111   -26.033266 -83.101594  -0.556830  -88.819178
     -10.666226 60.039856   -13.617248 -60.967780  -1.240422  29.359696   -27.115741 -82.985884
     -26.269890 -84.119215  -1.217392  29.436314   -13.591401 -60.643649  -10.642749 59.892378
     -0.565995  -88.805507  -26.788259 -81.302221  -10.666448 60.120197   -25.813387 -70.733391
6110 -33.268400 -55.281491  -10.638855 59.829990   -25.961682 -82.858048  -0.558335  -88.976597
     -10.637498 59.738077   -13.514532 -61.462304  -1.248889  28.858573   -27.033524 -83.474046
     -26.216311 -83.945755  -1.228839  28.930585   -13.541179 -61.052491  -10.611025 59.584966
     -0.568261  -88.934977  -26.670351 -81.778026  -10.634981 59.815104   -26.220411 -70.561484
6120 -32.995148 -57.601495  -10.612028 59.493784   -25.859151 -82.684202  -0.565632  -89.168605
     -10.608425 59.442422   -13.414057 -61.809841  -1.256131  28.330431   -26.935403 -83.914847
     -26.126291 -83.733500  -1.240641  28.410538   -13.495846 -61.559373  -10.583331 59.267617
     -0.572467  -89.106932  -26.561262 -82.188139  -10.602944 59.508122   -26.636357 -71.799894
6130 -32.989333 -59.957365  -10.582899 59.179679   -25.719904 -82.763929  -0.573818  -89.365076
     -10.576075 59.139467   -13.331498 -61.960227  -1.259572  27.792263   -26.839765 -84.108593
     -25.980218 -83.666900  -1.248996  27.882318   -13.460985 -62.197366  -10.554302 58.958351
     -0.576608  -89.291383  -26.463231 -82.817408  -10.569943 59.166450   -26.849932 -74.065330
6140 -33.076432 -61.549109  -10.555582 58.881972   -25.569064 -83.019346  -0.581862  -89.550087
     -10.543710 58.836785   -13.258992 -61.965744  -1.265474  27.255553   -26.724147 -84.424157
     -25.826909 -83.781546  -1.256523  27.364536   -13.420836 -62.824066  -10.524698 58.645512
     -0.579315  -89.483993  -26.372662 -83.480706  -10.538359 58.829795   -26.887433 -76.430677
6150 -33.215137 -61.984939  -10.523840 58.623960   -25.385358 -83.436944  -0.590202  -89.679878
     -10.508266 58.561620   -13.179092 -62.011531  -1.273327  26.767013   -26.614892 -84.899547
     -25.648752 -84.198617  -1.263158  26.890528   -13.371307 -63.545627  -10.493831 58.359789
     -0.584203  -89.647916  -26.259055 -83.852968  -10.507650 58.516963   -26.737439 -78.090679
6160 -33.489066 -62.127476  -10.491010 58.361513   -25.213344 -84.001299  -0.597311  -89.782009
     -10.474454 58.273853   -13.135439 -62.017640  -1.281842  26.282144   -26.473367 -85.759370
     -25.464530 -84.795654  -1.269085  26.408918   -13.318501 -64.278640  -10.459135 58.084496
     -0.591542  -89.801583  -26.171804 -84.240633  -10.474707 58.203455   -26.572391 -79.047427
6170 -33.597948 -62.803135  -10.456200 58.086887   -25.106881 -84.867419  -0.603602  -89.917494
     -10.441658 57.964773   -13.125205 -62.086636  -1.289844  25.761903   -26.341393 -86.456104
     -25.300511 -85.629752  -1.274194  25.903285   -13.286789 -64.871050  -10.421277 57.783842
     -0.600678  -89.969017  -26.101573 -84.747580  -10.445904 57.886082   -26.273912 -79.757610
6180 -33.643769 -62.088315  -10.418741 57.794712   -25.031113 -85.865529  -0.604694  -90.064691
     -10.409115 57.660815   -13.136644 -62.150779  -1.298475  25.253525   -26.216374 -87.166356
     -25.149164 -86.752485  -1.278623  25.371417   -13.260455 -65.364769  -10.380512 57.464385
     -0.608419  -90.124760  -26.032887 -85.211937  -10.417272 57.583045   -25.981422 -79.840880
6190 -33.447183 -61.339653  -10.381406 57.494670   -24.940238 -86.695545  -0.602057  -90.226568
     -10.379641 57.361413   -13.152079 -62.453533  -1.305380  24.767034   -26.116054 -87.924580
     -25.049637 -87.887679  -1.282187  24.863028   -13.225165 -65.827199  -10.342265 57.136081
     -0.612830  -90.262753  -25.917701 -85.690430  -10.381964 57.305506   -25.749317 -78.884077
6200 -32.969451 -59.198441  -10.343715 57.199548   -24.860843 -87.526248  -0.600066  -90.366688
     -10.345684 57.090033   -13.157198 -62.837710  -1.309633  24.286635   -25.991230 -88.634900
     -25.006130 -88.958792  -1.290116  24.371322   -13.204294 -66.186850  -10.305853 56.830148
     -0.612391  -90.372859  -25.759699 -86.119002  -10.345346 57.033824   -25.709102 -77.336272
6210 -32.487907 -57.497124  -10.307698 56.896186   -24.793334 -88.121321  -0.600105  -90.531631
     -10.310454 56.822424   -13.151855 -63.338505  -1.314607  23.806177   -25.891593 -89.308648
     -24.973034 -89.762905  -1.294847  23.899136   -13.174299 -66.502303  -10.270362 56.514350
     -0.611313  -90.496112  -25.590158 -86.673526  -10.308086 56.753838   -25.725266 -75.227914
6220 -31.959715 -56.694203  -10.275344 56.548783   -24.735192 -88.737328  -0.604752  -90.745463
     -10.273797 56.506223   -13.148933 -63.893006  -1.316816  23.279661   -25.776055 -89.761893
     -24.930955 -90.423955  -1.304258  23.389257   -13.166434 -66.728090  -10.240240 56.159926
     -0.609543  -90.664311  -25.446609 -87.350717  -10.269304 56.421385   -25.764079 -74.068724
6230 -31.595452 -56.714787  -10.245495 56.206899   -24.672398 -89.431692  -0.612809  -90.945100
     -10.238113 56.171082   -13.147434 -64.402999  -1.319753  22.733349   -25.633523 -90.272918
     -24.866374 -90.828236  -1.311706  22.851690   -13.162446 -66.944573  -10.209688 55.806262
     -0.612698  -90.862543  -25.366857 -88.343901  -10.230722 56.052612   -25.902870 -73.191522
6240 -31.224936 -56.085914  -10.217440 55.874272   -24.583704 -89.983161  -0.622501  -91.114542
     -10.204648 55.831906   -13.121153 -65.052880  -1.323830  22.214090   -25.509455 -90.909727
     -24.789359 -91.017219  -1.317532  22.337896   -13.154476 -67.222877  -10.182045 55.482246
     -0.616212  -91.051332  -25.277582 -89.297208  -10.195830 55.678025   -25.964012 -72.712620
6250 -30.982250 -54.214574  -10.188751 55.584875   -24.474290 -90.256550  -0.632336  -91.240584
     -10.173367 55.522846   -13.086584 -65.723637  -1.329510  21.718055   -25.382687 -91.719648
     -24.685619 -91.339086  -1.322349  21.847692   -13.122129 -67.492099  -10.154074 55.179595
     -0.622530  -91.206610  -25.183886 -90.159900  -10.166568 55.337123   -26.004854 -72.617371
6260 -30.977174 -51.583689  -10.158489 55.316536   -24.372876 -90.558700  -0.639862  -91.351091
     -10.141461 55.215210   -13.036003 -66.347658  -1.336624  21.219666   -25.290593 -92.590826
     -24.547889 -91.755892  -1.328598  21.347571   -13.091500 -67.758704  -10.124649 54.901881
     -0.631966  -91.358349  -25.110523 -90.830091  -10.141069 55.006980   -25.891609 -73.059448
6270 -31.070035 -49.075343  -10.124219 55.043500   -24.272669 -91.042929  -0.648680  -91.483441
     -10.112206 54.898024   -12.991243 -66.841650  -1.344410  20.697291   -25.187231 -93.526694
     -24.385384 -92.234715  -1.333992  20.834857   -13.079454 -68.071924  -10.096403 54.601217
     -0.643533  -91.517757  -25.050748 -91.421614  -10.116977 54.680240   -25.654292 -74.123353
6280 -31.368570 -46.369780  -10.090600 54.739856   -24.166108 -91.683810  -0.649993  -91.632513
     -10.081150 54.595119   -12.959737 -67.153264  -1.351457  20.174977   -25.121286 -94.342236
     -24.213125 -92.732473  -1.341019  20.303632   -13.067261 -68.392199  -10.064205 54.279342
     -0.653739  -91.684664  -25.022980 -91.955090  -10.093392 54.373742   -25.257105 -75.126284
6290 -31.514476 -41.909643  -10.054554 54.443440   -24.031220 -92.505213  -0.651520  -91.794426
     -10.049236 54.290054   -12.940118 -67.444442  -1.356519  19.664238   -25.068871 -95.018461
     -24.071186 -93.581916  -1.345023  19.786988   -13.059434 -68.805123  -10.030556 53.945643
     -0.658579  -91.832486  -24.961752 -92.543234  -10.065352 54.058441   -24.809089 -75.806339
6300 -31.682998 -36.116700  -10.018641 54.148248   -23.892356 -93.155073  -0.651775  -91.944488
     -10.013817 53.998356   -12.924161 -67.684352  -1.363577  19.190731   -25.024250 -95.500276
     -23.930377 -94.613727  -1.351996  19.304678   -13.028944 -69.241513  -9.996688  53.613837
     -0.661414  -91.964569  -24.882764 -92.837910  -10.031487 53.761253   -24.375411 -75.600870
6310 -31.716929 -30.951016  -9.982353  53.854522   -23.788046 -94.141560  -0.654979  -92.104123
     -9.981529  53.711710   -12.926524 -67.873274  -1.369642  18.707276   -24.973666 -95.985363
     -23.827107 -95.759399  -1.358635  18.829912   -13.027993 -69.610735  -9.964014  53.278814
     -0.663986  -92.103021  -24.814469 -93.151127  -10.000344 53.441795   -23.948544 -74.639507
6320 -31.599136 -27.149697  -9.948887  53.516315   -23.712102 -95.319733  -0.659557  -92.287868
     -9.948217  53.383296   -12.962623 -68.002195  -1.373519  18.189920   -24.914421 -96.320322
     -23.752903 -96.891030  -1.364549  18.305552   -13.029464 -69.997053  -9.935152  52.914132
     -0.665941  -92.272168  -24.772231 -93.644635  -9.965918  53.105502   -23.542268 -73.471579
6330 -31.297208 -24.338666  -9.916451  53.171311   -23.674825 -96.649480  -0.664619  -92.480443
     -9.914571  53.043874   -13.007116 -68.367664  -1.375386  17.668284   -24.831376 -96.624373
     -23.719329 -98.098717  -1.368592  17.781997   -13.038989 -70.352129  -9.906682  52.553807
     -0.668564  -92.454755  -24.702138 -94.142561  -9.935710  52.737322   -23.212865 -71.860580
6340 -30.972578 -23.030687  -9.884063  52.816001   -23.670208 -97.831902  -0.667818  -92.650946
     -9.883194  52.696645   -13.065449 -68.917703  -1.377084  17.157433   -24.761313 -96.994580
     -23.706201 -99.206669  -1.370545  17.247443   -13.041707 -70.664755  -9.879776  52.211396
     -0.672024  -92.621414  -24.616032 -94.765591  -9.904409  52.390015   -22.953575 -69.761876
6350 -30.505527 -22.025982  -9.854162  52.487446   -23.669891 -98.627410  -0.672780  -92.773010
     -9.851579  52.377243   -13.095344 -69.672752  -1.380089  16.662765   -24.648066 -97.465546
     -23.721977 -100.182470 -1.376077  16.742440   -13.022856 -70.905434  -9.853539  51.915233
     -0.675102  -92.748421  -24.516190 -95.048275  -9.877709  52.073092   -22.882070 -67.466356
6360 -30.146247 -22.625896  -9.824984  52.160717   -23.689226 -99.290419  -0.677607  -92.901606
     -9.822495  52.058190   -13.109348 -70.564774  -1.384146  16.153934   -24.526482 -97.959541
     -23.740141 -100.891380 -1.381292  16.230360   -13.003917 -71.137683  -9.827923  51.620420
     -0.679020  -92.886270  -24.412624 -95.442486  -9.851507  51.772292   -22.919653 -65.260324
6370 -29.783806 -24.142050  -9.796355  51.805131   -23.731256 -99.872999  -0.682688  -93.052727
     -9.792499  51.712953   -13.109603 -71.552419  -1.389626  15.608693   -24.401212 -98.381609
     -23.757232 -101.288760 -1.386935  15.684826   -12.982744 -71.300235  -9.801101  51.321827
     -0.684013  -93.033109  -24.316920 -96.020420  -9.830388  51.442268   -23.028853 -63.480798
6380 -29.466456 -26.957101  -9.769263  51.446361   -23.757409 -100.237970 -0.688387  -93.222415
     -9.763921  51.339880   -13.082527 -72.616268  -1.393776  15.054174   -24.276787 -98.911134
     -23.778161 -101.370270 -1.391137  15.134797   -12.951947 -71.483279  -9.776285  51.015578
     -0.691674  -93.215279  -24.221679 -96.644446  -9.805295  51.122950   -23.179964 -62.165678
6390 -29.117315 -28.709962  -9.742879  51.081792   -23.771559 -100.438510 -0.695310  -93.376902
     -9.734980  50.980807   -13.014405 -73.590824  -1.404417  14.497101   -24.174880 -99.496683
     -23.764608 -101.410480 -1.398374  14.580766   -12.914420 -71.657410  -9.747897  50.709040
     -0.695984  -93.382522  -24.139714 -97.273237  -9.781991  50.811135   -23.363058 -61.139880
6400 -28.782988 -30.044505  -9.717645  50.755480   -23.733033 -100.376660 -0.699583  -93.506342
     -9.709996  50.629415   -12.905815 -74.497644  -1.412041  13.967472   -24.076057 -100.129330
     -23.716542 -101.333660 -1.405449  14.062319   -12.851593 -71.987403  -9.720693  50.411389
     -0.700923  -93.529735  -24.045480 -97.811779  -9.758665  50.528526   -23.544731 -60.326262
6410 -28.476375 -30.444558  -9.692979  50.430459   -23.671324 -100.065010 -0.705286  -93.634318
     -9.688626  50.277442   -12.780384 -75.135665  -1.424661  13.456350   -23.985359 -100.867200
     -23.622105 -101.349460 -1.416387  13.546260   -12.774637 -72.335460  -9.690876  50.121480
     -0.706983  -93.671058  -23.968140 -98.246290  -9.732797  50.244249   -23.693972 -59.841098
6420 -28.257724 -31.194013  -9.669710  50.100238   -23.568994 -100.118480 -0.707977  -93.789252
     -9.668964  49.946841   -12.653125 -75.529995  -1.433358  12.914930   -23.908242 -101.473070
     -23.497132 -101.365410 -1.425636  13.003912   -12.708855 -72.811646  -9.663802  49.808015
     -0.715837  -93.824844  -23.890074 -98.905633  -9.709195  49.953951   -23.728365 -59.834974
6430 -27.925467 -30.940190  -9.647674  49.765124   -23.449389 -100.300390 -0.709864  -93.965475
     -9.646611  49.628702   -12.541176 -75.603414  -1.441917  12.390300   -23.845189 -102.031240
     -23.359267 -101.660320 -1.436758  12.467325   -12.643159 -73.443893  -9.636031  49.503485
     -0.718927  -93.960806  -23.845253 -99.626442  -9.683165  49.671797   -23.667519 -59.923339
6440 -27.675929 -30.224182  -9.624355  49.470616   -23.289400 -100.561520 -0.710427  -94.132237
     -9.623470  49.350116   -12.436690 -75.529987  -1.449859  11.883847   -23.775902 -102.620270
     -23.216791 -102.180920 -1.445375  11.959161   -12.580410 -74.203364  -9.608040  49.208297
     -0.722227  -94.100178  -23.749411 -100.221060 -9.652654  49.403582   -23.590781 -59.567546
6450 -27.413442 -29.177181  -9.600147  49.195198   -23.114042 -100.919390 -0.711651  -94.292644
     -9.597749  49.100807   -12.343054 -75.173770  -1.455619  11.411918   -23.718168 -102.989920
     -23.082589 -102.790250 -1.458027  11.496493   -12.518025 -75.044657  -9.579901  48.929579
     -0.722726  -94.215680  -23.676843 -100.574610 -9.618030  49.141536   -23.449331 -58.855852
6460 -27.287248 -28.767323  -9.573722  48.944073   -22.954299 -101.629210 -0.715506  -94.445461
     -9.570983  48.860967   -12.286734 -74.694794  -1.463376  10.944747   -23.633370 -103.373340
     -22.948432 -103.270190 -1.466610  11.042957   -12.481375 -75.885101  -9.549589  48.633285
     -0.726862  -94.347333  -23.586906 -100.973790 -9.582425  48.856174   -23.376342 -57.961738
6470 -27.171795 -28.574899  -9.547545  48.660474   -22.831071 -102.652920 -0.723871  -94.622279
     -9.540775  48.597560   -12.276405 -74.169783  -1.469371  10.466476   -23.553949 -103.524540
     -22.832688 -103.951010 -1.473000  10.562545   -12.464479 -76.693146  -9.523709  48.314760
     -0.729293  -94.509829  -23.535202 -101.438940 -9.548846  48.520371   -23.270832 -57.344944
6480 -27.090808 -29.193109  -9.518737  48.366600   -22.736740 -103.871650 -0.731231  -94.796890
     -9.507597  48.306489   -12.308278 -73.712597  -1.473409  9.982878    -23.451945 -103.849100
     -22.742342 -104.661510 -1.476687  10.072163   -12.483940 -77.485848  -9.497383  47.997143
     -0.731518  -94.696031  -23.476088 -101.920410 -9.517249  48.162652   -23.240936 -56.503151
6490 -27.016207 -30.100579  -9.490467  48.092662   -22.680225 -105.035110 -0.739718  -94.947151
     -9.475142  47.995209   -12.384754 -73.449384  -1.474664  9.515223    -23.372678 -104.188460
     -22.672020 -105.475470 -1.476042  9.589435    -12.514442 -78.149130  -9.469450  47.682942
     -0.733898  -94.883894  -23.417141 -102.421960 -9.487077  47.817442   -23.270396 -55.769031
6500 -27.102981 -30.528284  -9.458842  47.842878   -22.654959 -105.886730 -0.745511  -95.058190
     -9.443641  47.705174   -12.480197 -73.394564  -1.478794  9.064164    -23.281773 -104.696550
     -22.598795 -106.371720 -1.476876  9.136749    -12.550225 -78.655410  -9.437872  47.396231
     -0.738356  -95.030210  -23.334518 -102.618380 -9.459967  47.490470   -23.406628 -54.992860
6510 -27.265248 -31.832825  -9.429819  47.569959   -22.651249 -106.514220 -0.754162  -95.152811
     -9.414747  47.411643   -12.608409 -73.575264  -1.479849  8.605460    -23.189076 -105.125030
     -22.558351 -107.144310 -1.478755  8.652917    -12.589975 -79.020878  -9.407198  47.095422
     -0.749104  -95.168512  -23.261182 -102.774320 -9.433009  47.175411   -23.644823 -55.204385
6520 -27.451636 -33.694768  -9.400395  47.282920   -22.661102 -107.229840 -0.757308  -95.274308
     -9.388838  47.099988   -12.752165 -74.038166  -1.481191  8.114888    -23.109332 -105.479280
     -22.543352 -107.783950 -1.478864  8.149352    -12.652464 -79.202736  -9.376715  46.769690
     -0.758796  -95.323091  -23.170796 -103.154440 -9.411136  46.849947   -23.874964 -56.077885
6530 -27.669461 -35.451891  -9.371765  46.969553   -22.674579 -107.684880 -0.758906  -95.429605
     -9.363274  46.791644   -12.886423 -74.794530  -1.480061  7.599437    -23.022043 -105.802330
     -22.539080 -108.348720 -1.479316  7.615751    -12.703633 -79.234383  -9.350415  46.419776
     -0.766019  -95.481539  -23.088420 -103.675430 -9.388209  46.526219   -24.096031 -57.443641
6540 -27.900030 -36.668814  -9.342292  46.664719   -22.656812 -107.986650 -0.760440  -95.598561
     -9.336384  46.492663   -12.987751 -75.760430  -1.479166  7.064912    -22.930596 -106.231230
     -22.525074 -108.711270 -1.480685  7.094561    -12.745664 -79.252549  -9.323156  46.072190
     -0.769889  -95.625569  -22.995730 -104.136850 -9.361337  46.202181   -24.277850 -59.225609
6550 -28.174936 -37.281098  -9.312536  46.376045   -22.610738 -107.994320 -0.762365  -95.747943
     -9.308114  46.198699   -13.035941 -76.966738  -1.482344  6.550929    -22.824940 -106.653630
     -22.503166 -108.869160 -1.484575  6.591061    -12.757944 -79.181295  -9.300133  45.758128
     -0.772103  -95.744478  -22.881420 -104.612070 -9.337518  45.893604   -24.421207 -61.120787
6560 -28.462633 -37.414451  -9.285153  46.058707   -22.537226 -107.987010 -0.764890  -95.921723
     -9.280572  45.901749   -13.039331 -78.185559  -1.488634  6.023733    -22.736795 -107.051900
     -22.450044 -108.924250 -1.490838  6.066833    -12.745878 -79.149754  -9.277297  45.417555
     -0.775261  -95.875043  -22.791823 -105.057500 -9.309999  45.575283   -24.428429 -62.838694
6570 -28.626224 -37.282317  -9.260531  45.707882   -22.469356 -108.309130 -0.769795  -96.104695
     -9.254821  45.561664   -12.995242 -79.285391  -1.494936  5.465631    -22.652062 -107.432310
     -22.377527 -108.984500 -1.499810  5.520543    -12.728219 -79.140144  -9.257393  45.080883
     -0.776773  -96.039972  -22.731374 -105.618940 -9.285917  45.226974   -24.277336 -64.901737
6580 -28.681199 -37.031772  -9.234872  45.341661   -22.378557 -108.728570 -0.775194  -96.296581
     -9.229240  45.210542   -12.934541 -80.293990  -1.502604  4.913195    -22.569771 -107.888790
     -22.291950 -109.065680 -1.507445  4.951839    -12.692812 -79.282627  -9.238805  44.754515
     -0.779452  -96.223857  -22.678607 -106.294200 -9.263796  44.882398   -23.996521 -66.120111
6590 -28.601203 -36.022437  -9.212809  44.985073   -22.268311 -109.175140 -0.782327  -96.480111
     -9.205843  44.866167   -12.853217 -81.065755  -1.511172  4.367147    -22.501858 -108.424800
     -22.184085 -109.312810 -1.515731  4.400426    -12.643266 -79.547954  -9.218014  44.440474
     -0.784343  -96.412237  -22.621688 -107.035330 -9.240977  44.549207   -23.672219 -66.702009
6600 -28.532168 -34.493540  -9.189786  44.674471   -22.133586 -109.490990 -0.787119  -96.610650
     -9.180220  44.540348   -12.752746 -81.642323  -1.518913  3.858208    -22.416315 -109.015280
     -22.049038 -109.733640 -1.526136  3.887703    -12.580559 -79.977711  -9.193207  44.153649
     -0.790039  -96.552129  -22.545997 -107.395330 -9.215151  44.248910   -23.473035 -66.465815
6610 -28.305478 -33.288954  -9.166420  44.354527   -22.030627 -109.971810 -0.795179  -96.742952
     -9.157740  44.217336   -12.664660 -81.927965  -1.529045  3.362216    -22.330830 -109.587330
     -21.916931 -110.225870 -1.534768  3.375465    -12.519748 -80.405678  -9.169771  43.878654
     -0.797063  -96.713241  -22.465538 -107.854800 -9.193913  43.963018   -23.285217 -65.957814
6620 -28.048938 -32.830707  -9.143441  44.027013   -21.921268 -110.627580 -0.803099  -96.908981
     -9.135199  43.893958   -12.603150 -82.085294  -1.536659  2.843229    -22.252849 -110.167520
     -21.792855 -110.802840 -1.542380  2.854846    -12.480242 -80.893468  -9.141915  43.577229
     -0.806583  -96.887621  -22.398171 -108.469540 -9.169546  43.645179   -23.062403 -65.053593
6630 -27.729664 -33.132150  -9.120942  43.702167   -21.820726 -111.393370 -0.811021  -97.085702
     -9.110455  43.562874   -12.564314 -82.108742  -1.542999  2.320038    -22.166925 -110.770370
     -21.687199 -111.447190 -1.549202  2.329410    -12.464068 -81.466715  -9.116419  43.265283
     -0.812829  -97.071255  -22.323766 -109.101160 -9.146493  43.333850   -22.886423 -64.314490
6640 -27.430865 -33.371137  -9.095451  43.391054   -21.714492 -112.159950 -0.816678  -97.256633
     -9.084710  43.242736   -12.554426 -82.144472  -1.548222  1.822093    -22.087444 -111.310950
     -21.590754 -112.142440 -1.554379  1.826680    -12.455575 -82.036912  -9.088506  42.953660
     -0.818072  -97.246743  -22.236243 -109.709570 -9.120375  43.016057   -22.774790 -63.264852
6650 -27.260944 -33.231355  -9.068901  43.095481   -21.619780 -112.867270 -0.821865  -97.394904
     -9.060023  42.943891   -12.553030 -82.104532  -1.553449  1.331754    -22.000489 -111.798710
     -21.490234 -112.849180 -1.558584  1.346629    -12.462321 -82.542248  -9.061947  42.663830
     -0.824647  -97.383932  -22.139871 -110.128140 -9.093953  42.718712   -22.765444 -62.373673
6660 -27.062898 -33.447671  -9.041434  42.803582   -21.537393 -113.380980 -0.826381  -97.532452
     -9.033467  42.647169   -12.573141 -82.060139  -1.558068  0.856866    -21.922411 -112.330830
     -21.417354 -113.530970 -1.566238  0.858804    -12.465015 -82.990102  -9.035404  42.360353
     -0.830829  -97.517634  -22.073865 -110.609980 -9.066898  42.434003   -22.779188 -61.636417
6670 -26.928961 -33.912867  -9.017505  42.479349   -21.469463 -114.117360 -0.831253  -97.692205
     -9.011323  42.334525   -12.607656 -82.095718  -1.561246  0.342743    -21.862788 -112.797670
     -21.350798 -114.123060 -1.571092  0.340502    -12.486346 -83.464932  -9.010761  42.029421
     -0.838484  -97.667604  -22.019531 -111.197360 -9.040893  42.104089   -22.735606 -61.453183
6680 -26.745309 -34.319070  -8.993948  42.152572   -21.384066 -114.917720 -0.835911  -97.865555
     -8.987390  42.020556   -12.657812 -82.255215  -1.563222  -0.181440   -21.808492 -113.234960
     -21.305255 -114.767170 -1.574547  -0.194385   -12.516503 -83.926677  -8.987861  41.682691
     -0.843418  -97.835837  -21.966976 -111.879720 -9.014237  41.757234   -22.677469 -61.540884
6690 -26.584886 -34.090250  -8.967509  41.830451   -21.308908 -115.730000 -0.840448  -98.031203
     -8.962098  41.718032   -12.705454 -82.508801  -1.567343  -0.691803   -21.765343 -113.697080
     -21.257240 -115.426580 -1.575463  -0.716060   -12.540356 -84.343876  -8.963662  41.337881
     -0.847899  -97.986161  -21.911134 -112.583880 -8.988394  41.431099   -22.543187 -61.463894
6700 -26.458023 -33.687959  -8.941880  41.537336   -21.240479 -116.365260 -0.846559  -98.154887
     -8.937799  41.441837   -12.733500 -82.795490  -1.570732  -1.187029   -21.697635 -114.115640
     -21.199185 -116.031090 -1.580022  -1.213462   -12.543980 -84.795907  -8.942801  41.037204
     -0.854285  -98.107250  -21.862926 -113.045510 -8.964424  41.120318   -22.461327 -61.359047
6710 -26.380247 -33.027624  -8.917067  41.237704   -21.183764 -117.073300 -0.854227  -98.289498
     -8.910563  41.152935   -12.760760 -83.100499  -1.575768  -1.671245   -21.636408 -114.475470
     -21.131605 -116.535280 -1.584252  -1.713542   -12.547431 -85.272910  -8.921856  40.733476
     -0.858742  -98.230936  -21.828866 -113.458290 -8.940639  40.809763   -22.319312 -61.276690
6720 -26.219099 -32.495325  -8.891057  40.914740   -21.163354 -117.945800 -0.861652  -98.441127
     -8.882102  40.822179   -12.784285 -83.458967  -1.580150  -2.199497   -21.564762 -114.917680
     -21.083710 -117.192100 -1.589368  -2.234560   -12.553980 -85.722263  -8.898471  40.415579
     -0.862864  -98.396651  -21.792978 -113.919140 -8.917800  40.468132   -22.172611 -61.435543
6730 -25.962633 -32.702824  -8.868119  40.579883   -21.140301 -118.771410 -0.871047  -98.601440
     -8.855943  40.459766   -12.808086 -83.804582  -1.584377  -2.729246   -21.522725 -115.316050
     -21.052867 -117.812850 -1.594621  -2.762395   -12.558013 -86.238528  -8.877484  40.086554
     -0.870700  -98.571594  -21.760981 -114.391870 -8.899257  40.128960   -21.972101 -61.047012
6740 -25.797503 -32.845514  -8.844613  40.237000   -21.106706 -119.506630 -0.877411  -98.749442
     -8.830612  40.112128   -12.831310 -84.154210  -1.587465  -3.246458   -21.478333 -115.644310
     -21.020726 -118.512630 -1.596863  -3.286122   -12.565743 -86.723960  -8.856203  39.767435
     -0.874873  -98.730172  -21.705874 -114.773720 -8.878934  39.782275   -21.798446 -60.602687
6750 -25.676979 -32.712758  -8.822192  39.913580   -21.101328 -119.978090 -0.878795  -98.862844
     -8.805444  39.771261   -12.856734 -84.469461  -1.591092  -3.739698   -21.419133 -115.956600
     -20.996159 -119.240040 -1.602209  -3.779162   -12.564683 -87.056200  -8.830874  39.449261
     -0.880208  -98.851733  -21.646913 -114.994600 -8.856574  39.474365   -21.791063 -59.532811
6760 -25.637150 -33.313899  -8.797955  39.616271   -21.088505 -120.434830 -0.880472  -98.976219
     -8.785793  39.451950   -12.888547 -84.818113  -1.595788  -4.240272   -21.361226 -116.219090
     -20.984966 -119.837310 -1.606599  -4.269660   -12.570913 -87.359901  -8.807393  39.148688
     -0.886598  -98.974569  -21.575344 -115.265440 -8.833663  39.164963   -21.879333 -58.656558
6770 -25.536654 -34.706003  -8.778672  39.291549   -21.079761 -120.944400 -0.883585  -99.138353
     -8.766981  39.111397   -12.942483 -85.230305  -1.599609  -4.765157   -21.300825 -116.598250
     -21.010516 -120.391180 -1.610119  -4.786999   -12.585904 -87.661444  -8.787544  38.807633
     -0.892038  -99.123806  -21.504676 -115.788570 -8.811890  38.844116   -21.997395 -57.612479
6780 -25.542860 -36.506766  -8.755719  38.955538   -21.060479 -121.423980 -0.887442  -99.307752
     -8.747848  38.787232   -13.003945 -85.717882  -1.603839  -5.291416   -21.245081 -117.000000
     -21.034831 -120.787590 -1.613595  -5.319526   -12.600505 -87.908116  -8.766073  38.480139
     -0.896042  -99.275406  -21.446237 -116.407370 -8.789442  38.534275   -22.160739 -56.952428
6790 -25.543950 -38.382270  -8.731661  38.613533   -21.035112 -121.860000 -0.891053  -99.467851
     -8.726577  38.486501   -13.059221 -86.350263  -1.607132  -5.804064   -21.180712 -117.368010
     -21.044497 -121.023140 -1.614035  -5.834421   -12.620939 -88.117349  -8.744761  38.154542
     -0.897301  -99.411025  -21.375043 -117.061560 -8.765622  38.221531   -22.362002 -56.902562
6800 -25.696899 -40.020873  -8.708878  38.301368   -21.008567 -122.058500 -0.893045  -99.589791
     -8.705247  38.204726   -13.099008 -87.045507  -1.610556  -6.292861   -21.097147 -117.812040
     -21.014631 -121.017630 -1.616589  -6.337291   -12.628716 -88.265579  -8.720451  37.864130
     -0.897529  -99.527120  -21.319768 -117.533730 -8.740589  37.937027   -22.638025 -57.209143
6810 -25.878435 -41.484728  -8.687281  37.999376   -20.968107 -122.165800 -0.897419  -99.712428
     -8.680762  37.926778   -13.120732 -87.810121  -1.615160  -6.779796   -21.013223 -118.293230
     -20.948879 -121.025080 -1.621210  -6.842783   -12.627123 -88.451300  -8.695761  37.602002
     -0.898872  -99.648186  -21.267156 -118.005280 -8.712060  37.643349   -22.905971 -58.169884
6820 -26.022621 -43.086319  -8.670425  37.667403   -20.908101 -122.369370 -0.901148  -99.864011
     -8.657774  37.606192   -13.123076 -88.610697  -1.617883  -7.302513   -20.947121 -118.801390
     -20.877466 -121.038220 -1.627037  -7.388334   -12.623583 -88.704683  -8.670362  37.286293
     -0.902362  -99.806474  -21.226718 -118.544520 -8.686029  37.310574   -23.052024 -59.916233
6830 -26.036454 -44.097257  -8.649703  37.328094   -20.843912 -122.562360 -0.904012  -100.029660
     -8.634039  37.239368   -13.106347 -89.457463  -1.622024  -7.844569   -20.893570 -119.406310
     -20.802144 -121.261790 -1.631284  -7.934701   -12.609696 -89.008377  -8.646119  36.948261
     -0.904991  -99.997107  -21.171054 -119.136270 -8.662970  36.962763   -23.072799 -61.844077
6840 -26.059780 -44.217604  -8.630430  37.000429   -20.753729 -122.637450 -0.907354  -100.180130
     -8.613636  36.889826   -13.057853 -90.232793  -1.626764  -8.389696   -20.846347 -119.824610
     -20.712913 -121.559530 -1.636621  -8.475677   -12.580824 -89.370847  -8.626196  36.622480
     -0.909657  -100.167880 -21.100260 -119.594110 -8.644729  36.617871   -22.978492 -63.872581
6850 -26.078407 -43.583491  -8.612947  36.703052   -20.656410 -122.807370 -0.912365  -100.324470
     -8.595424  36.567808   -12.989920 -90.813233  -1.635772  -8.906560   -20.799095 -120.259090
     -20.623248 -121.894580 -1.645532  -8.991936   -12.545860 -89.727394  -8.608677  36.311451
     -0.916644  -100.315750 -21.024112 -119.931070 -8.629257  36.310096   -22.819324 -65.297557
6860 -26.048028 -42.544084  -8.593925  36.402440   -20.551067 -122.999860 -0.918200  -100.468340
     -8.577919  36.248158   -12.918400 -91.200676  -1.644826  -9.423164   -20.751216 -120.662050
     -20.534743 -122.293090 -1.654605  -9.494748   -12.509128 -90.124719  -8.592777  36.000267
     -0.926236  -100.457990 -20.955271 -120.437620 -8.616122  36.016260   -22.580554 -65.763561
6870 -25.848627 -41.960865  -8.572540  36.083885   -20.443319 -123.584980 -0.926058  -100.647130
     -8.561411  35.915969   -12.863609 -91.392937  -1.655569  -9.961897   -20.715090 -121.041070
     -20.465123 -122.766810 -1.663037  -10.023777  -12.482022 -90.592546  -8.575856  35.673299
     -0.934703  -100.620420 -20.906137 -121.066370 -8.599314  35.716993   -22.289293 -65.919252
6880 -25.642920 -41.634962  -8.550715  35.738366   -20.332877 -124.419260 -0.935013  -100.837800
     -8.543007  35.584156   -12.821598 -91.419010  -1.663750  -10.492839  -20.670509 -121.485180
     -20.384536 -123.359240 -1.669704  -10.551584  -12.467116 -91.151062  -8.558074  35.350460
     -0.941548  -100.783240 -20.855985 -121.684650 -8.577700  35.414738   -21.977839 -65.502208
6890 -25.448999 -41.384523  -8.528404  35.396721   -20.227197 -125.283250 -0.939386  -101.005730
     -8.522530  35.275535   -12.801942 -91.317490  -1.669276  -10.999311  -20.616040 -121.888000
     -20.315434 -124.007740 -1.674202  -11.070578  -12.454280 -91.741416  -8.536920  35.034131
     -0.945990  -100.936480 -20.794308 -122.251520 -8.552569  35.095938   -21.766297 -64.736445
6900 -25.331283 -41.632805  -8.504895  35.074350   -20.154499 -125.957830 -0.944078  -101.143650
     -8.498585  34.986550   -12.808698 -91.158403  -1.674499  -11.473461  -20.534279 -122.247000
     -20.236755 -124.604170 -1.677788  -11.552775  -12.450291 -92.309946  -8.513643  34.757386
     -0.947123  -101.063210 -20.748198 -122.702790 -8.524120  34.807341   -21.713082 -63.868649
6910 -25.229347 -42.720779  -8.483356  34.747795   -20.098377 -126.634580 -0.950110  -101.275880
     -8.474849  34.683450   -12.840558 -91.004577  -1.679250  -11.948927  -20.465715 -122.673330
     -20.169057 -125.203970 -1.682193  -12.041401  -12.468201 -92.804428  -8.488681  34.456354
     -0.948708  -101.199870 -20.685874 -123.064280 -8.498113  34.498565   -21.708062 -62.947025
6920 -25.111248 -44.572467  -8.465062  34.404926   -20.064906 -127.273540 -0.954227  -101.424780
     -8.451757  34.349495   -12.910412 -90.926479  -1.681096  -12.451214  -20.411280 -123.091910
     -20.121231 -125.879870 -1.683646  -12.561156  -12.499874 -93.266027  -8.464091  34.131959
     -0.952541  -101.365730 -20.625234 -123.530220 -8.471411  34.166412   -21.792702 -62.378614
6930 -25.024422 -46.812177  -8.444228  34.073037   -20.019524 -127.896760 -0.958920  -101.590170
     -8.431035  34.006510   -13.006949 -91.059038  -1.682821  -12.975098  -20.353128 -123.475000
     -20.100030 -126.555440 -1.684743  -13.080045  -12.541565 -93.685155  -8.442961  33.788050
     -0.956131  -101.535830 -20.545429 -124.071810 -8.449955  33.815860   -21.893900 -62.209207
6940 -24.989892 -48.788482  -8.423078  33.751059   -19.997756 -128.404020 -0.963683  -101.734910
     -8.410277  33.673515   -13.114001 -91.332632  -1.682904  -13.501248  -20.296357 -123.932720
     -20.087459 -127.199340 -1.684528  -13.608742  -12.589772 -93.976893  -8.421266  33.450820
     -0.959469  -101.689400 -20.472543 -124.500680 -8.428755  33.486868   -22.037571 -62.688178
6950 -25.038230 -50.428310  -8.401005  33.459333   -19.989379 -128.840520 -0.966525  -101.852460
     -8.388762  33.375096   -13.219348 -91.787410  -1.684535  -13.999305  -20.241416 -124.291700
     -20.065291 -127.689950 -1.685589  -14.110683  -12.640251 -94.078291  -8.400458  33.120135
     -0.965555  -101.807940 -20.404750 -124.874590 -8.409022  33.167714   -22.197802 -63.641455
6960 -25.132002 -51.726037  -8.379272  33.161300   -19.973079 -129.174710 -0.971947  -101.983940
     -8.365091  33.067597   -13.317869 -92.452173  -1.687267  -14.512349  -20.176409 -124.753350
     -20.048796 -128.122630 -1.688762  -14.605850  -12.679710 -94.137455  -8.382374  32.796395
     -0.969708  -101.934940 -20.344693 -125.339870 -8.390977  32.850071   -22.311280 -64.901646
6970 -25.129623 -52.473949  -8.355323  32.833150   -19.936596 -129.571760 -0.977145  -102.138520
     -8.343898  32.742132   -13.410158 -93.339629  -1.686704  -15.044532  -20.127978 -125.307240
     -20.033728 -128.474470 -1.688135  -15.139539  -12.710880 -94.163270  -8.364111  32.448652
     -0.975873  -102.092300 -20.282045 -126.003200 -8.373502  32.505257   -22.270214 -66.482362
6980 -25.093239 -52.259959  -8.331817  32.478958   -19.882409 -130.081450 -0.981011  -102.315820
     -8.319423  32.387676   -13.465112 -94.378541  -1.687950  -15.593338  -20.084887 -125.913780
     -20.007375 -128.965410 -1.689535  -15.682289  -12.737768 -94.238567  -8.345233  32.097661
     -0.980195  -102.260440 -20.226475 -126.770630 -8.354400  32.149995   -22.125313 -67.838187
6990 -25.015373 -51.403746  -8.308797  32.131920   -19.822310 -130.586570 -0.985233  -102.482240
     -8.297795  32.039683   -13.485696 -95.450414  -1.691177  -16.137750  -20.041928 -126.531550
     -19.972745 -129.454340 -1.691865  -16.211717  -12.743729 -94.331471  -8.329755  31.758445
     -0.986110  -102.433680 -20.168684 -127.443940 -8.337930  31.802792   -21.912118 -68.811847
7000 -24.976464 -50.592351  -8.288181  31.804641   -19.758203 -130.855150 -0.989582  -102.619160
     -8.282208  31.707391   -13.462623 -96.378235  -1.699905  -16.642868  -19.999018 -127.130860
     -19.928112 -129.768410 -1.698369  -16.706818  -12.719418 -94.445826  -8.313061  31.456481
     -0.992497  -102.571250 -20.122342 -128.043840 -8.324485  31.496943   -21.651465 -68.961637
7010 -24.836085 -49.595630  -8.270332  31.476715   -19.695871 -131.255510 -0.998236  -102.751880
     -8.267409  31.388404   -13.409777 -97.127044  -1.709725  -17.152009  -19.965230 -127.554540
     -19.877419 -130.152170 -1.706990  -17.216714  -12.691543 -94.658690  -8.303134  31.161478
     -0.998910  -102.706670 -20.089331 -128.584100 -8.310215  31.213543   -21.395659 -68.743420
7020 -24.540947 -48.467172  -8.252830  31.131810   -19.639152 -131.648110 -1.004454  -102.916220
     -8.252214  31.062249   -13.337415 -97.715636  -1.722792  -17.669304  -19.930645 -128.048300
     -19.838183 -130.660230 -1.715240  -17.735705  -12.655851 -94.998585  -8.286458  30.861505
     -1.006450  -102.859270 -20.037461 -129.122780 -8.294532  30.916867   -21.122149 -67.837729
7030 -24.258155 -48.036827  -8.237176  30.782723   -19.579953 -132.168690 -1.011073  -103.089240
     -8.236937  30.735989   -13.261769 -98.058171  -1.733306  -18.189813  -19.896259 -128.493270
     -19.793188 -131.109480 -1.724038  -18.262913  -12.628802 -95.482692  -8.273195  30.549210
     -1.010014  -103.025270 -19.977068 -129.620780 -8.275170  30.620491   -20.937712 -66.741226
7040 -23.991492 -48.225119  -8.220226  30.443384   -19.518396 -132.652350 -1.017059  -103.248810
     -8.220172  30.412385   -13.202222 -98.162723  -1.742278  -18.684055  -19.856396 -128.975870
     -19.744625 -131.532430 -1.731337  -18.783200  -12.613290 -96.094213  -8.254519  30.245022
     -1.014488  -103.184440 -19.932279 -130.132060 -8.253629  30.325958   -20.838845 -65.507255
7050 -23.790175 -48.757300  -8.206600  30.114633   -19.466469 -133.004730 -1.018362  -103.380530
     -8.199782  30.102686   -13.158448 -98.020839  -1.746316  -19.158775  -19.803840 -129.408600
     -19.672470 -131.972540 -1.737734  -19.278784  -12.604080 -96.706932  -8.228089  29.967887
     -1.016390  -103.321160 -19.895386 -130.469350 -8.227976  30.037874   -20.851960 -64.418244
7060 -23.646220 -49.985508  -8.190349  29.787027   -19.439928 -133.426430 -1.023506  -103.513160
     -8.178311  29.784202   -13.147927 -97.769368  -1.749961  -19.640143  -19.765588 -129.893070
     -19.611336 -132.498410 -1.741547  -19.765656  -12.621133 -97.329236  -8.204244  29.657714
     -1.020884  -103.451720 -19.854744 -130.905300 -8.203921  29.728306   -20.925485 -63.531499
7070 -23.480437 -51.548320  -8.174234  29.447854   -19.408327 -133.954460 -1.026657  -103.672780
     -8.160255  29.442842   -13.178618 -97.598574  -1.748926  -20.145425  -19.722619 -130.459510
     -19.566588 -133.081150 -1.742401  -20.280177  -12.664003 -97.995133  -8.176889  29.339597
     -1.024253  -103.615320 -19.803909 -131.475980 -8.179984  29.392162   -21.062793 -62.975601
7080 -23.351860 -53.074468  -8.159853  29.115602   -19.356084 -134.527560 -1.027732  -103.849720
     -8.140654  29.088692   -13.234367 -97.512140  -1.745445  -20.675634  -19.688853 -131.024720
     -19.527482 -133.725010 -1.741692  -20.791429  -12.721010 -98.660545  -8.150820  29.000810
     -1.028195  -103.782470 -19.743734 -132.028060 -8.155843  29.038746   -21.213889 -63.013062
7090 -23.264423 -54.499996  -8.141433  28.804854   -19.298602 -135.059980 -1.031130  -104.018240
     -8.124795  28.739128   -13.313775 -97.544190  -1.745999  -21.207501  -19.653452 -131.585000
     -19.503496 -134.331270 -1.742897  -21.305347  -12.778583 -99.220722  -8.128006  28.646232
     -1.033949  -103.957960 -19.685589 -132.544880 -8.136092  28.691113   -21.361036 -63.246911
7100 -23.292569 -55.614306  -8.121792  28.516367   -19.234076 -135.516710 -1.038047  -104.151340
     -8.108765  28.435851   -13.409536 -97.721718  -1.749227  -21.729431  -19.618431 -131.989940
     -19.466293 -134.807380 -1.742332  -21.800106  -12.821618 -99.626624  -8.108863  28.311132
     -1.037724  -104.088540 -19.630006 -133.030030 -8.116933  28.355535   -21.444476 -64.143616
7110 -23.312624 -56.254577  -8.102102  28.231516   -19.163879 -135.997000 -1.045840  -104.264730
     -8.092613  28.132495   -13.502979 -98.053782  -1.755965  -22.251196  -19.573328 -132.303110
     -19.422509 -135.304530 -1.746140  -22.311772  -12.850883 -99.908416  -8.094284  27.975296
     -1.044181  -104.213340 -19.584926 -133.450680 -8.098772  28.031629   -21.447965 -65.182317
7120 -23.342476 -56.411869  -8.077842  27.911900   -19.108534 -136.571190 -1.050542  -104.403940
     -8.076436  27.839642   -13.593375 -98.686090  -1.763995  -22.790572  -19.529767 -132.657810
     -19.383401 -135.813680 -1.748160  -22.849508  -12.867773 -100.085460 -8.077164  27.619738
     -1.050803  -104.352490 -19.522055 -133.986670 -8.083344  27.695880   -21.338783 -66.271422
7130 -23.309211 -56.100669  -8.054421  27.571466   -19.064936 -137.143450 -1.055622  -104.554060
     -8.056370  27.527064   -13.661046 -99.477489  -1.770217  -23.330201  -19.479481 -133.058960
     -19.344519 -136.383760 -1.751605  -23.398515  -12.867820 -100.181280 -8.061341  27.267995
     -1.054416  -104.516100 -19.462991 -134.466670 -8.063444  27.341225   -21.161405 -67.163459
7140 -23.271622 -55.406198  -8.029953  27.231202   -19.035631 -137.727920 -1.057906  -104.706520
     -8.032522  27.219915   -13.698428 -100.419410 -1.775397  -23.859460  -19.420262 -133.530710
     -19.298237 -137.003390 -1.754170  -23.937539  -12.859457 -100.217160 -8.044257  26.919761
     -1.056781  -104.658120 -19.402747 -134.803870 -8.045976  26.991332   -20.981350 -67.590348
7150 -23.232055 -54.803689  -8.006968  26.892329   -19.015250 -138.272490 -1.060819  -104.831070
     -8.007569  26.902885   -13.707946 -101.325360 -1.776779  -24.357970  -19.359622 -134.032520
     -19.252767 -137.589540 -1.759405  -24.452266  -12.846918 -100.255810 -8.026098  26.602466
     -1.060074  -104.789980 -19.358703 -135.151190 -8.029333  26.666211   -20.805852 -67.557203
7160 -23.181339 -54.307665  -7.988128  26.548243   -18.999720 -138.673440 -1.063889  -104.963950
     -7.985933  26.563826   -13.692709 -102.303070 -1.780632  -24.853800  -19.318268 -134.522490
     -19.235143 -138.182940 -1.764885  -24.950377  -12.824076 -100.299960 -8.011841  26.287654
     -1.063542  -104.918250 -19.299036 -135.540100 -8.015555  26.349500   -20.622566 -67.302310
7170 -23.052618 -54.282482  -7.974162  26.183167   -18.999038 -139.141480 -1.069337  -105.125330
     -7.966221  26.198983   -13.670459 -103.185380 -1.781764  -25.386219  -19.276902 -135.099900
     -19.232788 -138.757500 -1.769990  -25.464045  -12.819382 -100.432930 -7.999244  25.958791
     -1.068636  -105.079080 -19.248837 -136.014100 -8.003500  26.020675   -20.506594 -66.528878
7180 -22.908281 -54.525904  -7.960344  25.818091   -18.985221 -139.479450 -1.072380  -105.302210
     -7.950530  25.823854   -13.641319 -103.915760 -1.785853  -25.921928  -19.239837 -135.688690
     -19.235843 -139.309660 -1.775995  -25.989261  -12.816316 -100.694340 -7.983389  25.629462
     -1.072789  -105.244860 -19.197393 -136.570120 -7.991462  25.700275   -20.467883 -65.655675
7190 -22.813005 -55.174237  -7.948531  25.476622   -18.958057 -139.865190 -1.077049  -105.465220
     -7.935761  25.460148   -13.613675 -104.463970 -1.790289  -26.452249  -19.196715 -136.200160
     -19.232297 -139.690280 -1.779413  -26.502236  -12.834567 -101.082290 -7.969145  25.318200
     -1.077541  -105.405450 -19.149944 -137.166580 -7.977713  25.383728   -20.546679 -64.856104
7200 -22.749566 -56.349166  -7.936232  25.173399   -18.921411 -140.111060 -1.081456  -105.604510
     -7.924731  25.128530   -13.573289 -104.793890 -1.793338  -26.954563  -19.156676 -136.661680
     -19.212991 -139.860190 -1.785400  -26.990766  -12.854183 -101.549700 -7.952493  25.014489
     -1.083224  -105.536950 -19.099366 -137.571600 -7.959618  25.091628   -20.684831 -64.408897
7210 -22.711999 -57.825629  -7.924371  24.865078   -18.875692 -140.321420 -1.087014  -105.746350
     -7.914857  24.816407   -13.550409 -104.995780 -1.799111  -27.465874  -19.112205 -137.106670
     -19.166477 -139.971460 -1.791240  -27.491974  -12.880455 -102.080510 -7.935801  24.706426
     -1.087645  -105.671880 -19.052626 -138.053880 -7.941206  24.782173   -20.883289 -64.301575
7220 -22.640751 -59.200418  -7.911049  24.548097   -18.806967 -140.519300 -1.091582  -105.912190
     -7.903934  24.493119   -13.541252 -105.045060 -1.805543  -28.000473  -19.066929 -137.536560
     -19.114534 -140.223160 -1.796940  -28.023526  -12.910568 -102.691570 -7.916270  24.364670
     -1.091917  -105.833370 -19.002134 -138.462480 -7.919457  24.456194   -21.095507 -64.740186
7230 -22.584422 -60.587861  -7.894442  24.226497   -18.739983 -140.675210 -1.095422  -106.078880
     -7.893226  24.181483   -13.547050 -105.073430 -1.811726  -28.552801  -19.029302 -137.976800
     -19.037874 -140.502430 -1.799068  -28.567921  -12.935018 -103.259170 -7.897949  24.023635
     -1.096536  -106.013500 -18.937700 -138.912410 -7.898618  24.118657   -21.246808 -65.697307
7240 -22.586007 -61.602945  -7.877174  23.912663   -18.657640 -140.964500 -1.099865  -106.229730
     -7.878841  23.880708   -13.546464 -105.066040 -1.817025  -29.087949  -18.972083 -138.415840
     -18.956231 -140.911900 -1.804817  -29.094641  -12.968529 -103.797370 -7.877254  23.693066
     -1.099778  -106.176830 -18.876744 -139.218350 -7.878995  23.774368   -21.356507 -67.069668
7250 -22.620241 -62.423118  -7.857880  23.605508   -18.575513 -141.363570 -1.105947  -106.361700
     -7.862136  23.585139   -13.568799 -105.141320 -1.822379  -29.596810  -18.923647 -138.864230
     -18.870713 -141.338100 -1.808212  -29.596070  -13.000581 -104.274340 -7.859035  23.376921
     -1.103175  -106.311850 -18.823302 -139.656080 -7.858069  23.455907   -21.392631 -68.897803
7260 -22.672929 -62.615097  -7.840325  23.298218   -18.506338 -141.802510 -1.110699  -106.478880
     -7.844347  23.291648   -13.595516 -105.288020 -1.830035  -30.100373  -18.874186 -139.372880
     -18.774425 -141.881640 -1.813133  -30.098006  -13.019533 -104.585230 -7.840341  23.053660
     -1.109428  -106.425640 -18.775083 -140.031410 -7.843600  23.129356   -21.271485 -70.444088
7270 -22.689621 -62.600877  -7.821008  22.975206   -18.430853 -142.415650 -1.118132  -106.616590
     -7.825661  22.974616   -13.633128 -105.570240 -1.834160  -30.617271  -18.829942 -139.909930
     -18.708800 -142.529440 -1.815185  -30.624330  -13.043910 -104.922670 -7.825916  22.738587
     -1.115686  -106.572540 -18.723127 -140.517640 -7.828767  22.797160   -21.087705 -71.524365
7280 -22.688380 -62.266951  -7.801011  22.634043   -18.374274 -143.070630 -1.123253  -106.759910
     -7.804465  22.658033   -13.676923 -105.915490 -1.838065  -31.137746  -18.775387 -140.446910
     -18.643136 -143.235390 -1.819067  -31.160654  -13.059703 -105.180400 -7.810073  22.408701
     -1.121152  -106.713490 -18.673505 -140.984310 -7.816279  22.457525   -20.886408 -72.043038
7290 -22.689075 -61.774421  -7.782814  22.298987   -18.331059 -143.760510 -1.127630  -106.908790
     -7.785059  22.328511   -13.711262 -106.348430 -1.840574  -31.655095  -18.730177 -140.986950
     -18.583193 -143.929650 -1.822946  -31.688160  -13.077112 -105.399770 -7.793670  22.074054
     -1.128725  -106.854100 -18.620729 -141.374320 -7.803531  22.127742   -20.687316 -72.039335
7300 -22.640004 -61.595006  -7.765840  21.970547   -18.296478 -144.413460 -1.131002  -107.026610
     -7.763769  22.012035   -13.755589 -106.816970 -1.840898  -32.153563  -18.685025 -141.432470
     -18.538713 -144.584330 -1.826390  -32.194639  -13.098514 -105.636390 -7.778344  21.760407
     -1.133757  -106.974550 -18.568876 -141.806140 -7.789895  21.812771   -20.542778 -71.689365
7310 -22.564475 -61.642384  -7.747120  21.641591   -18.259146 -144.939950 -1.136324  -107.168030
     -7.744690  21.678853   -13.788900 -107.348740 -1.841117  -32.661306  -18.647276 -141.848600
     -18.508574 -145.232060 -1.831702  -32.690871  -13.112713 -105.960680 -7.764938  21.431985
     -1.137604  -107.095920 -18.511766 -142.233600 -7.774704  21.499040   -20.449922 -71.141675
7320 -22.487344 -62.040153  -7.731785  21.297070   -18.223539 -145.418970 -1.140920  -107.322210
     -7.728407  21.328961   -13.820005 -107.848220 -1.843361  -33.220328  -18.601002 -142.246230
     -18.493710 -145.797460 -1.836788  -33.220761  -13.130360 -106.273970 -7.748708  21.089835
     -1.140831  -107.251930 -18.449097 -142.664960 -7.756687  21.169771   -20.433484 -70.415235
7330 -22.408830 -62.547854  -7.717709  20.958350   -18.198290 -145.819530 -1.145553  -107.485670
     -7.714334  20.965786   -13.838993 -108.301150 -1.845984  -33.789353  -18.556983 -142.647710
     -18.482009 -146.321840 -1.843076  -33.761436  -13.149973 -106.603070 -7.736560  20.723503
     -1.145103  -107.412820 -18.393522 -143.064190 -7.741805  20.826877   -20.506215 -69.737048
7340 -22.353125 -63.447123  -7.704698  20.620851   -18.178958 -146.136920 -1.149629  -107.638290
     -7.703707  20.616953   -13.852263 -108.698550 -1.852746  -34.349895  -18.505089 -143.006090
     -18.466167 -146.748660 -1.848594  -34.298646  -13.174118 -106.892540 -7.723639  20.385841
     -1.147461  -107.574270 -18.352730 -143.428260 -7.727094  20.491635   -20.634364 -69.470265
7350 -22.336786 -64.404381  -7.691185  20.314092   -18.160468 -146.479330 -1.153333  -107.764460
     -7.694032  20.300357   -13.869460 -109.177950 -1.859027  -34.871007  -18.448569 -143.365800
     -18.433944 -147.027950 -1.851477  -34.802974  -13.207664 -107.151120 -7.714322  20.071613
     -1.150310  -107.698830 -18.304168 -143.810880 -7.713000  20.170172   -20.783178 -69.857627
7360 -22.341183 -65.523485  -7.677339  20.016988   -18.136865 -146.791460 -1.155955  -107.896080
     -7.684846  19.998044   -13.897204 -109.617620 -1.866449  -35.387938  -18.391711 -143.827590
     -18.397403 -147.284590 -1.855442  -35.307344  -13.235847 -107.427780 -7.701856  19.771210
     -1.154736  -107.832230 -18.263705 -144.180880 -7.700324  19.842418   -20.903289 -70.688182
7370 -22.375220 -66.515108  -7.663323  19.703956   -18.102872 -147.159510 -1.160131  -108.048700
     -7.673742  19.692565   -13.922042 -110.035990 -1.872779  -35.922336  -18.325668 -144.347820
     -18.345212 -147.638850 -1.859897  -35.855694  -13.265028 -107.669220 -7.687744  19.450324
     -1.160171  -107.988310 -18.215186 -144.555590 -7.685411  19.497063   -21.002706 -72.010381
7380 -22.431372 -67.236355  -7.644510  19.384768   -18.056809 -147.585850 -1.162816  -108.231440
     -7.658993  19.387360   -13.946554 -110.562710 -1.876954  -36.461029  -18.276445 -144.915260
     -18.280276 -148.030790 -1.861938  -36.419443  -13.290761 -107.864860 -7.671545  19.119229
     -1.164352  -108.153080 -18.156099 -144.936250 -7.672445  19.143855   -21.001325 -73.524693
7390 -22.480861 -67.611148  -7.627360  19.055414   -17.997143 -148.051200 -1.166890  -108.389730
     -7.640974  19.068384   -13.967354 -111.078470 -1.879468  -36.992733  -18.227713 -145.505900
     -18.206779 -148.566180 -1.868404  -36.961687  -13.312010 -108.068900 -7.655601  18.782238
     -1.166856  -108.314400 -18.103405 -145.347850 -7.658147  18.792409   -20.928785 -74.956730
7400 -22.534439 -67.798710  -7.608164  18.734397   -17.927800 -148.526230 -1.170330  -108.534850
     -7.620561  18.767519   -13.993957 -111.669670 -1.880977  -37.509709  -18.192092 -146.019710
     -18.137634 -149.120930 -1.871796  -37.484095  -13.324633 -108.242270 -7.640503  18.459637
     -1.170583  -108.447240 -18.050736 -145.850530 -7.643594  18.467925   -20.761627 -76.090915
7410 -22.543030 -67.753799  -7.593336  18.394380   -17.863329 -149.029820 -1.176834  -108.662580
     -7.600514  18.449005   -14.016777 -112.370750 -1.882198  -38.041914  -18.151649 -146.506300
     -18.086597 -149.672310 -1.879228  -37.997109  -13.326461 -108.371120 -7.626074  18.141584
     -1.178485  -108.576080 -17.990900 -146.332030 -7.630290  18.151197   -20.549700 -76.691609
7420 -22.491454 -67.345283  -7.578092  18.044913   -17.798107 -149.566150 -1.186454  -108.807050
     -7.581770  18.078012   -14.034960 -112.978340 -1.887269  -38.587382  -18.118662 -146.946510
     -18.043449 -150.267520 -1.884704  -38.540621  -13.321603 -108.576170 -7.613576  17.802052
     -1.186117  -108.720650 -17.951224 -146.908950 -7.620128  17.829622   -20.316879 -76.722833
7430 -22.411617 -66.775595  -7.563540  17.676493   -17.752313 -150.066050 -1.193637  -108.934900
     -7.568262  17.703326   -14.033030 -113.661540 -1.892706  -39.139757  -18.073906 -147.435820
     -18.002077 -150.821810 -1.890163  -39.079070  -13.300973 -108.777140 -7.602401  17.479510
     -1.193159  -108.850680 -17.900864 -147.491740 -7.608091  17.528453   -20.096522 -76.156394
7440 -22.246086 -66.253483  -7.549748  17.325840   -17.726093 -150.572580 -1.201800  -109.059820
     -7.554966  17.320847   -14.015549 -114.342620 -1.897240  -39.672328  -18.017959 -147.882280
     -17.967647 -151.333980 -1.894659  -39.594178  -13.288827 -109.039790 -7.594185  17.175422
     -1.199122  -108.977530 -17.850303 -148.018540 -7.595468  17.244358   -19.952196 -75.199432
7450 -22.028662 -66.068011  -7.538390  16.998797   -17.715186 -150.995170 -1.206793  -109.165260
     -7.547756  16.979483   -13.994258 -114.841790 -1.904614  -40.169862  -17.954151 -148.355720
     -17.937748 -151.801400 -1.897897  -40.094449  -13.279682 -109.368680 -7.584229  16.902163
     -1.205644  -109.084940 -17.815476 -148.489280 -7.583401  16.969587   -19.883380 -74.013834
7460 -21.807090 -66.244999  -7.528448  16.681803   -17.718391 -151.436650 -1.211897  -109.299420
     -7.540262  16.661684   -13.944228 -115.213730 -1.910796  -40.657582  -17.896152 -148.845360
     -17.912365 -152.188260 -1.906055  -40.592983  -13.291318 -109.750770 -7.574759  16.619213
     -1.209214  -109.209590 -17.776613 -148.847480 -7.570016  16.672534   -19.874177 -72.723477
7470 -21.621319 -66.799155  -7.519449  16.354381   -17.727054 -151.810140 -1.215622  -109.470040
     -7.535045  16.343645   -13.887857 -115.431430 -1.918550  -41.196339  -17.848744 -149.309350
     -17.890661 -152.602340 -1.914994  -41.124314  -13.312483 -110.145190 -7.561486  16.295299
     -1.213053  -109.373970 -17.742896 -149.152290 -7.559084  16.333602   -19.948293 -71.690376
7480 -21.455845 -67.568692  -7.512977  16.037193   -17.720074 -152.153420 -1.217737  -109.647370
     -7.529199  16.033205   -13.828958 -115.508400 -1.923795  -41.731973  -17.800724 -149.768420
     -17.868215 -152.985000 -1.921670  -41.669192  -13.347408 -110.659460 -7.548677  15.962878
     -1.215562  -109.552520 -17.701447 -149.407950 -7.544738  15.982748   -20.117642 -70.871269
7490 -21.350026 -68.700584  -7.504900  15.739965   -17.689415 -152.456320 -1.218954  -109.826760
     -7.521075  15.747396   -13.788947 -115.503040 -1.928998  -42.272312  -17.758451 -150.209710
     -17.842853 -153.319970 -1.930020  -42.204763  -13.394809 -111.233610 -7.531665  15.616167
     -1.215118  -109.728180 -17.659652 -149.740260 -7.529744  15.619777   -20.323778 -70.498091
7500 -21.264648 -69.823803  -7.497666  15.457905   -17.650137 -152.729810 -1.221908  -109.971630
     -7.512155  15.472689   -13.773973 -115.420970 -1.933258  -42.786242  -17.726923 -150.599190
     -17.811433 -153.624210 -1.935954  -42.711577  -13.441433 -111.779170 -7.516142  15.276859
     -1.217627  -109.877810 -17.620704 -150.151420 -7.512487  15.257589   -20.537338 -70.931833
7510 -21.263244 -70.908459  -7.489560  15.166013   -17.594335 -153.011700 -1.226272  -110.113320
     -7.501655  15.197929   -13.785040 -115.315370 -1.937716  -43.298259  -17.698120 -151.007710
     -17.764733 -153.847590 -1.941252  -43.221146  -13.489593 -112.336160 -7.498652  14.932352
     -1.223000  -110.020780 -17.588912 -150.623790 -7.497818  14.905471   -20.696737 -71.922468
7520 -21.286935 -71.722781  -7.478423  14.869224   -17.538322 -153.298490 -1.231587  -110.275860
     -7.488857  14.895487   -13.819033 -115.329180 -1.942750  -43.838634  -17.670309 -151.450980
     -17.699372 -154.121690 -1.944154  -43.750177  -13.527869 -112.756340 -7.483286  14.582237
     -1.227580  -110.165340 -17.550187 -151.107840 -7.484369  14.561746   -20.786780 -73.455577
7530 -21.333848 -72.374485  -7.463608  14.556976   -17.462585 -153.654960 -1.236667  -110.430320
     -7.477628  14.568902   -13.885011 -115.431240 -1.945091  -44.375128  -17.632394 -151.900670
     -17.625867 -154.451150 -1.944986  -44.295011  -13.564539 -113.185170 -7.468041  14.235935
     -1.233362  -110.329450 -17.505581 -151.691440 -7.469838  14.246074   -20.763455 -75.076318
7540 -21.385665 -72.998106  -7.447201  14.246017   -17.397088 -154.104130 -1.243549  -110.574860
     -7.463246  14.258017   -13.950880 -115.673910 -1.944965  -44.916469  -17.585729 -152.324030
     -17.549031 -154.857100 -1.947419  -44.839074  -13.597259 -113.466160 -7.457652  13.909813
     -1.239286  -110.476290 -17.457413 -152.193570 -7.455061  13.913478   -20.664505 -76.610342
7550 -21.425441 -73.177824  -7.430850  13.932948   -17.334638 -154.586330 -1.247753  -110.679800
     -7.449050  13.957003   -14.011471 -115.977190 -1.948014  -45.428377  -17.527809 -152.793350
     -17.474453 -155.364050 -1.950000  -45.359012  -13.621775 -113.694010 -7.444841  13.599755
     -1.244341  -110.583620 -17.413625 -152.650110 -7.440575  13.608086   -20.493288 -77.708351
7560 -21.418183 -73.120965  -7.413511  13.623217   -17.287540 -155.090110 -1.253561  -110.791730
     -7.433014  13.638905   -14.060011 -116.434820 -1.951061  -45.949382  -17.482822 -153.218610
     -17.421778 -156.015630 -1.958100  -45.888638  -13.635811 -113.855770 -7.437720  13.280815
     -1.249051  -110.689280 -17.364863 -153.079410 -7.428067  13.279335   -20.293934 -78.354821
7570 -21.412757 -73.038998  -7.398550  13.288825   -17.257796 -155.696750 -1.260437  -110.918070
     -7.419853  13.307966   -14.083255 -116.871520 -1.957328  -46.503637  -17.436136 -153.680180
     -17.393455 -156.637010 -1.964995  -46.450105  -13.651208 -114.003270 -7.430811  12.941106
     -1.253286  -110.839010 -17.333740 -153.485890 -7.419540  12.927058   -20.117870 -78.400126
7580 -21.377336 -73.042392  -7.387506  12.953331   -17.251687 -156.312080 -1.264193  -111.065630
     -7.406452  12.948653   -14.090593 -117.379090 -1.963737  -47.079111  -17.396636 -154.201600
     -17.370704 -157.269970 -1.972350  -47.010060  -13.670026 -114.090320 -7.425106  12.601184
     -1.259346  -110.975320 -17.305996 -153.841740 -7.413569  12.564907   -19.985675 -78.014312
7590 -21.326106 -73.232675  -7.376497  12.601009   -17.226761 -156.893320 -1.268113  -111.202790
     -7.397219  12.589531   -14.100586 -117.810300 -1.968264  -47.622438  -17.355203 -154.701930
     -17.358583 -157.847150 -1.976715  -47.567967  -13.694603 -114.365510 -7.416812  12.254882
     -1.263258  -111.114310 -17.282187 -154.278440 -7.401708  12.219766   -19.928081 -77.490377
7600 -21.218878 -73.626142  -7.366117  12.277517   -17.213827 -157.413380 -1.270197  -111.316480
     -7.389329  12.254817   -14.095489 -118.255880 -1.974787  -48.144356  -17.319717 -155.189900
     -17.344254 -158.294250 -1.981249  -48.076582  -13.725429 -114.653760 -7.407411  11.935037
     -1.265901  -111.238690 -17.247129 -154.653240 -7.392198  11.877759   -19.940875 -76.771717
7610 -21.123869 -74.155967  -7.358167  11.951991   -17.204296 -157.802180 -1.272130  -111.453290
     -7.383828  11.929555   -14.104349 -118.555500 -1.980401  -48.650969  -17.293924 -155.678850
     -17.325624 -158.665480 -1.983930  -48.597005  -13.755274 -114.970110 -7.396388  11.605971
     -1.270204  -111.356710 -17.213337 -155.086870 -7.381203  11.560871   -20.010067 -76.432924
7620 -21.031477 -74.967860  -7.350876  11.612668   -17.191586 -158.141650 -1.273158  -111.610040
     -7.377512  11.624298   -14.122314 -118.819090 -1.983562  -49.187483  -17.272091 -156.127280
     -17.297194 -159.000880 -1.987265  -49.138316  -13.790735 -115.307270 -7.385205  11.262811
     -1.272375  -111.514990 -17.166060 -155.569620 -7.369154  11.225076   -20.126394 -76.611666
7630 -20.967101 -76.004179  -7.341045  11.278412   -17.171771 -158.420070 -1.274449  -111.810090
     -7.368833  11.308615   -14.140363 -119.008380 -1.987537  -49.738746  -17.245519 -156.538350
     -17.266974 -159.327670 -1.989806  -49.701323  -13.827564 -115.677740 -7.370968  10.908349
     -1.271286  -111.697980 -17.118560 -156.044880 -7.356052  10.869929   -20.268478 -77.199028
7640 -20.936865 -77.005861  -7.332092  10.945956   -17.129360 -158.719040 -1.277892  -111.990110
     -7.357214  11.000687   -14.181800 -119.223360 -1.986364  -50.275272  -17.220161 -156.966080
     -17.234619 -159.684500 -1.991156  -50.260666  -13.872404 -116.015800 -7.360163  10.545338
     -1.272607  -111.872370 -17.078569 -156.623770 -7.340052  10.509311   -20.365339 -78.221507
7650 -20.953235 -77.798219  -7.323946  10.633188   -17.085708 -158.986220 -1.282814  -112.142220
     -7.344709  10.698956   -14.238504 -119.455840 -1.984759  -50.797858  -17.182799 -157.344550
     -17.194946 -159.987690 -1.994332  -50.786500  -13.913169 -116.235280 -7.350900  10.200567
     -1.275835  -112.024470 -17.042516 -157.145900 -7.327619  10.145362   -20.444537 -79.652220
7660 -21.014444 -78.385009  -7.311684  10.332276   -17.023948 -159.355680 -1.291687  -112.266720
     -7.331991  10.381666   -14.303043 -119.792230 -1.985511  -51.317921  -17.142827 -157.662030
     -17.159378 -160.295830 -1.998544  -51.321443  -13.958809 -116.452370 -7.344056  9.860034
     -1.280621  -112.173040 -17.004600 -157.716850 -7.316116  9.786090    -20.447770 -81.391678
7670 -21.134669 -78.739172  -7.301132  10.028864   -16.979805 -159.716160 -1.298930  -112.406980
     -7.321073  10.045062   -14.365318 -120.139290 -1.988491  -51.893200  -17.100475 -158.062770
     -17.122734 -160.630640 -2.003595  -51.888663  -13.982296 -116.544700 -7.339347  9.494666
     -1.288060  -112.333620 -16.990265 -158.159290 -7.312497  9.435894    -20.341228 -83.097186
7680 -21.296843 -78.950325  -7.288321  9.732424    -16.953022 -160.146950 -1.303910  -112.543400
     -7.311384  9.697267    -14.428523 -120.651490 -1.991732  -52.479173  -17.059983 -158.524180
     -17.074612 -160.950890 -2.007837  -52.455679  -14.003158 -116.553410 -7.336677  9.144346
     -1.295380  -112.497260 -16.980221 -158.565400 -7.311313  9.087555    -20.140702 -84.652247
7690 -21.428107 -79.118597  -7.273886  9.413523    -16.925536 -160.643120 -1.304201  -112.673770
     -7.301357  9.358858    -14.484155 -121.342550 -1.996726  -53.057605  -17.011446 -159.105140
     -17.029190 -161.317940 -2.012117  -53.015594  -14.023008 -116.549770 -7.331938  8.805334
     -1.301086  -112.630300 -16.958557 -158.886150 -7.309434  8.759039    -19.932363 -85.652217
7700 -21.510370 -79.058776  -7.257338  9.067572    -16.888025 -161.047630 -1.304756  -112.782310
     -7.291800  9.023489    -14.533615 -122.159240 -2.002386  -53.588487  -16.974981 -159.647210
     -16.978065 -161.722250 -2.012984  -53.538403  -14.031666 -116.717800 -7.326385  8.504119
     -1.305490  -112.733730 -16.923700 -159.268900 -7.303614  8.457221    -19.729807 -86.150259
7710 -21.542761 -79.097501  -7.242532  8.717974    -16.855372 -161.463340 -1.304761  -112.914700
     -7.281999  8.689407    -14.543247 -122.999990 -2.011667  -54.111140  -16.950660 -160.170650
     -16.939636 -162.191610 -2.018475  -54.076250  -14.038029 -116.937530 -7.319664  8.209786
     -1.306720  -112.838780 -16.874092 -159.576610 -7.296614  8.173027    -19.550509 -86.373308
7720 -21.517652 -79.333278  -7.232676  8.349174    -16.838162 -161.884080 -1.305159  -113.097300
     -7.275114  8.337103    -14.524821 -123.824820 -2.017801  -54.678989  -16.947287 -160.602190
     -16.914018 -162.666810 -2.024833  -54.648212  -14.032316 -117.134210 -7.315205  7.898282
     -1.307708  -112.980660 -16.829052 -159.914290 -7.288527  7.866776    -19.395502 -86.535655
7730 -21.464373 -79.773922  -7.226867  7.961331    -16.815238 -162.278850 -1.304888  -113.280940
     -7.267330  7.991764    -14.489674 -124.485600 -2.022221  -55.246840  -16.938010 -160.979560
     -16.892372 -163.143720 -2.030458  -55.228117  -14.020846 -117.474900 -7.309129  7.575066
     -1.306900  -113.158000 -16.789881 -160.371910 -7.276702  7.533469    -19.312848 -86.255866
7740 -21.329416 -80.320828  -7.223447  7.600783    -16.783507 -162.643490 -1.308890  -113.459030
     -7.256910  7.624539    -14.432065 -124.986890 -2.025391  -55.805230  -16.924805 -161.316290
     -16.880343 -163.568550 -2.034994  -55.795906  -14.013365 -117.961990 -7.299139  7.253693
     -1.307223  -113.320890 -16.757764 -160.828440 -7.266397  7.210604    -19.279292 -85.787125
7750 -21.178512 -80.753301  -7.219326  7.251790    -16.742628 -163.016600 -1.317282  -113.579880
     -7.247431  7.276318    -14.377863 -125.329130 -2.028334  -56.325014  -16.893904 -161.526740
     -16.859984 -163.952140 -2.038363  -56.334116  -14.011827 -118.550170 -7.291785  6.960663
     -1.311141  -113.449840 -16.717964 -161.318950 -7.254477  6.904492    -19.308219 -85.405006
7760 -21.002018 -81.513608  -7.215576  6.925921    -16.713858 -163.428520 -1.325164  -113.697460
     -7.242047  6.930407    -14.320603 -125.578080 -2.030805  -56.842459  -16.850768 -161.815910
     -16.840590 -164.194670 -2.044912  -56.858459  -14.020761 -119.146570 -7.282819  6.658109
     -1.318904  -113.589480 -16.674613 -161.757010 -7.244119  6.595472    -19.369594 -85.033386
7770 -20.888247 -82.284043  -7.213035  6.607251    -16.685702 -163.738030 -1.333994  -113.834270
     -7.239107  6.579296    -14.264642 -125.558100 -2.034982  -57.397280  -16.806257 -162.116970
     -16.806697 -164.451520 -2.052283  -57.420369  -14.037520 -119.714230 -7.275700  6.339388
     -1.326437  -113.740500 -16.646371 -162.094160 -7.236927  6.268653    -19.455877 -85.201948
7780 -20.769654 -83.266116  -7.210269  6.295479    -16.655694 -164.147560 -1.339849  -113.991940
     -7.238641  6.237886    -14.233765 -125.400310 -2.038691  -57.951764  -16.755924 -162.508230
     -16.762346 -164.759650 -2.055896  -57.985126  -14.070851 -120.224970 -7.268711  5.995380
     -1.333401  -113.902570 -16.625003 -162.509600 -7.228880  5.933168    -19.538312 -85.673696
7790 -20.685461 -84.502584  -7.202666  6.000749    -16.608608 -164.460260 -1.344060  -114.145110
     -7.235556  5.918002    -14.230072 -125.236100 -2.042193  -58.496211  -16.709956 -163.023220
     -16.718682 -165.048890 -2.058339  -58.529986  -14.108360 -120.741250 -7.258663  5.623135
     -1.337484  -114.060930 -16.580582 -162.922470 -7.219151  5.612781    -19.584732 -86.356235
7800 -20.636749 -85.251612  -7.194383  5.709632    -16.559641 -164.869760 -1.348401  -114.282420
     -7.229045  5.622710    -14.247438 -125.034910 -2.045604  -59.008399  -16.656423 -163.503910
     -16.657912 -165.476900 -2.061046  -59.042362  -14.160479 -121.136600 -7.250677  5.275442
     -1.342209  -114.190320 -16.537281 -163.355430 -7.206766  5.269695    -19.634133 -87.282320
7810 -20.602992 -85.935015  -7.185939  5.425209    -16.507348 -165.291450 -1.350479  -114.421670
     -7.225018  5.333099    -14.282076 -124.937570 -2.051427  -59.524815  -16.617820 -163.971660
     -16.600283 -165.907960 -2.066758  -59.551871  -14.209957 -121.460970 -7.242060  4.922868
     -1.345953  -114.308840 -16.484113 -163.707510 -7.197359  4.922159    -19.599176 -88.490934
7820 -20.606448 -86.728205  -7.178870  5.113763    -16.460708 -165.699120 -1.353802  -114.576690
     -7.219730  5.027198    -14.334228 -124.934190 -2.056924  -60.080954  -16.580661 -164.450610
     -16.548018 -166.387000 -2.073339  -60.097960  -14.252615 -121.675240 -7.234295  4.562767
     -1.348159  -114.467290 -16.440484 -164.105130 -7.187058  4.563861    -19.503729 -89.657783
7830 -20.626776 -87.267389  -7.168973  4.796596    -16.419590 -166.213650 -1.354496  -114.746900
     -7.211052  4.704829    -14.395097 -124.981730 -2.061857  -60.648986  -16.550970 -164.890920
     -16.492974 -166.885830 -2.076300  -60.667244  -14.297936 -121.758750 -7.227802  4.201342
     -1.348748  -114.618590 -16.400443 -164.470630 -7.179981  4.212060    -19.359764 -90.884312
7840 -20.620923 -87.707976  -7.159819  4.474442    -16.385988 -166.721110 -1.354313  -114.896580
     -7.203734  4.382363    -14.463768 -125.183790 -2.065623  -61.218599  -16.523949 -165.382690
     -16.452274 -167.449750 -2.081360  -61.242570  -14.327135 -121.806200 -7.220414  3.853467
     -1.350870  -114.745270 -16.364313 -164.819710 -7.171745  3.873910    -19.161192 -91.639694
7850 -20.564771 -87.841460  -7.150002  4.154694    -16.341099 -167.200460 -1.357333  -115.016420
     -7.194031  4.064982    -14.533803 -125.588470 -2.069176  -61.748506  -16.490607 -165.834820
     -16.410859 -168.007790 -2.085291  -61.780330  -14.354652 -121.934080 -7.213563  3.537072
     -1.351989  -114.841190 -16.316671 -165.173500 -7.162599  3.566193    -18.986795 -91.840747
7860 -20.529327 -87.711639  -7.139723  3.787338    -16.301750 -167.667680 -1.361966  -115.129010
     -7.180889  3.742236    -14.604083 -126.031060 -2.071935  -62.273303  -16.462582 -166.233000
     -16.359723 -168.576590 -2.085002  -62.324291  -14.364434 -122.060230 -7.208627  3.235419
     -1.354978  -114.944240 -16.268862 -165.744430 -7.151093  3.255665    -18.832949 -91.793801
7870 -20.474714 -87.965240  -7.132642  3.416786    -16.269424 -168.140530 -1.369843  -115.290390
     -7.168578  3.379283    -14.643495 -126.532010 -2.075509  -62.835547  -16.443055 -166.629110
     -16.340170 -169.124800 -2.087258  -62.908504  -14.356671 -122.235360 -7.205414  2.897491
     -1.356935  -115.090230 -16.231595 -166.229750 -7.143226  2.926717    -18.711871 -91.450173
7880 -20.401454 -88.047981  -7.125541  3.033114    -16.257040 -168.660230 -1.378933  -115.451440
     -7.157986  2.982906    -14.675711 -127.102980 -2.075836  -63.411001  -16.424784 -166.984950
     -16.331188 -169.652510 -2.088115  -63.495600  -14.347750 -122.389100 -7.204149  2.560516
     -1.359047  -115.265430 -16.191982 -166.799580 -7.135794  2.561625    -18.633158 -91.011473
7890 -20.295455 -88.307405  -7.122857  2.654408    -16.235702 -169.134940 -1.387492  -115.576050
     -7.151567  2.572511    -14.689896 -127.623580 -2.075144  -63.976517  -16.385667 -167.373220
     -16.336008 -170.128940 -2.087912  -64.069832  -14.338099 -122.733860 -7.197550  2.224628
     -1.361969  -115.433940 -16.162805 -167.409990 -7.130407  2.207785    -18.604497 -90.306919
7900 -20.143374 -88.278567  -7.118636  2.318303    -16.222335 -169.667720 -1.395476  -115.653530
     -7.149064  2.177767    -14.684896 -128.130870 -2.076021  -64.511171  -16.324040 -167.738590
     -16.336694 -170.568560 -2.087284  -64.599475  -14.344679 -123.187820 -7.191099  1.910177
     -1.369550  -115.563780 -16.135286 -167.912450 -7.127723  1.876731    -18.641135 -89.497087
7910 -19.984806 -88.465169  -7.116862  2.011978    -16.200939 -170.087780 -1.398926  -115.730170
     -7.147783  1.819279    -14.665440 -128.596160 -2.079910  -65.048766  -16.258739 -168.132380
     -16.329491 -170.901200 -2.093204  -65.123163  -14.355820 -123.689660 -7.185205  1.606481
     -1.376688  -115.684720 -16.100879 -168.370830 -7.124793  1.577197    -18.692406 -88.892589
7920 -19.835839 -88.942056  -7.111611  1.700534    -16.208776 -170.482420 -1.397879  -115.843430
     -7.151416  1.470993    -14.633859 -128.857450 -2.086239  -65.638084  -16.199701 -168.583590
     -16.319083 -171.234440 -2.100248  -65.698798  -14.372167 -124.108650 -7.179951  1.270682
     -1.386967  -115.808640 -16.077456 -168.657080 -7.123761  1.277854    -18.782273 -88.852408
7930 -19.716302 -89.639056  -7.107166  1.386847    -16.218580 -170.909880 -1.390472  -115.979470
     -7.154874  1.141034    -14.599066 -128.987900 -2.094460  -66.232985  -16.150425 -169.168850
     -16.298105 -171.487020 -2.111636  -66.281468  -14.418666 -124.503370 -7.173948  0.907198
     -1.393396  -115.923000 -16.049074 -168.828250 -7.123720  0.965491    -18.867625 -89.123446
7940 -19.603065 -90.217434  -7.103435  1.076097    -16.218703 -171.262650 -1.383304  -116.131840
     -7.156327  0.812611    -14.572845 -129.123490 -2.100195  -66.830214  -16.116372 -169.881780
     -16.259015 -171.804320 -2.119204  -66.842999  -14.468182 -124.807110 -7.166187  0.527602
     -1.393038  -116.014440 -15.992882 -168.990970 -7.119305  0.638938    -18.923942 -89.480780
7950 -19.466359 -90.673240  -7.098935  0.762028    -16.188033 -171.580440 -1.377443  -116.295870
     -7.156027  0.525306    -14.571694 -129.183980 -2.106260  -67.338780  -16.090180 -170.567020
     -16.210058 -172.251680 -2.125046  -67.366821  -14.529293 -125.151150 -7.157646  0.167114
     -1.388891  -116.085540 -15.931096 -169.375280 -7.107446  0.331965    -18.961305 -89.886101
7960 -19.373817 -91.195355  -7.094093  0.432012    -16.149336 -171.778580 -1.378596  -116.500070
     -7.149599  0.270322    -14.582788 -129.134430 -2.111217  -67.855337  -16.089227 -171.115650
     -16.156583 -172.698110 -2.126441  -67.894039  -14.560795 -125.438530 -7.152099  -0.192312
     -1.382949  -116.212380 -15.870815 -169.881450 -7.084966  0.008123    -18.964492 -90.735572
7970 -19.315353 -91.964892  -7.094828  0.065369    -16.103112 -172.075910 -1.388482  -116.734030
     -7.137756  -0.030114   -14.604885 -128.990560 -2.113890  -68.393667  -16.104813 -171.597340
     -16.124295 -173.102340 -2.127168  -68.459932  -14.584141 -125.665600 -7.150506  -0.560354
     -1.377339  -116.419230 -15.836022 -170.521590 -7.068416  -0.396049   -18.929598 -91.699372
7980 -19.322508 -92.387756  -7.095740  -0.303814   -16.066777 -172.460060 -1.404450  -116.928610
     -7.127223  -0.396536   -14.642054 -128.943600 -2.113405  -68.933010  -16.109036 -171.918680
     -16.099207 -173.544000 -2.124087  -69.029699  -14.598865 -125.861890 -7.146467  -0.939392
     -1.379149  -116.650550 -15.811115 -171.294270 -7.057104  -0.841980   -18.864178 -92.485991
7990 -19.311384 -92.462169  -7.095133  -0.647333   -16.013680 -172.990120 -1.418834  -117.044170
     -7.119367  -0.808196   -14.691594 -128.961810 -2.108528  -69.462810  -16.080468 -172.282850
     -16.088685 -173.976160 -2.119538  -69.600072  -14.621855 -126.182020 -7.142612  -1.307896
     -1.382900  -116.860280 -15.799379 -172.116140 -7.052288  -1.262699   -18.766672 -92.693337
8000 -19.238931 -91.945793  -7.092373  -0.958389   -15.968345 -173.543370 -1.429444  -117.070650
     -7.118251  -1.183531   -14.738568 -129.192690 -2.105368  -69.969030  -16.017235 -172.605380
     -16.069804 -174.449440 -2.120221  -70.132306  -14.648940 -126.549710 -7.137922  -1.623357
     -1.391849  -116.980030 -15.785307 -172.695050 -7.052878  -1.630882   -18.678274 -92.433073
8010 -19.157731 -91.592371  -7.086009  -1.261959   -15.942089 -174.037300 -1.430255  -117.108780
     -7.118695  -1.522851   -14.788284 -129.430730 -2.108565  -70.507539  -15.964832 -173.012270
     -16.049234 -174.853920 -2.120267  -70.660333  -14.668915 -126.956340 -7.131793  -1.938817
     -1.402909  -117.085160 -15.778371 -173.177710 -7.056717  -1.941021   -18.540135 -92.172504