! Mini-Circuits
! S2P DATA File Format
! Unit Family Type: Amplifier
! MCL Part No: GAT-1+
! Note: All S Parameters are in dB deg format
! The Unit was tested at +25 °C
!
# MHz S DB R 50
!    FREQ       dB(S11)   PHS(S11)  dB(S21)   PHS(S21)  dB(S12)   PHS(S12)  dB(S22)   PHS(S22) 
    1.000000   -52.757   147.634    -0.997    -0.233    -0.982    -0.209   -52.577   178.407 
    5.000000   -47.597  -162.979    -0.988    -0.389    -0.984    -0.447   -51.262   155.492 
    9.000000   -50.460  -164.498    -0.987    -0.732    -0.984    -0.774   -53.759   159.242 
   13.000000   -51.670  -140.913    -0.993    -1.059    -0.986    -1.090   -53.306   162.701 
   17.000000   -57.622  -144.189    -0.999    -1.415    -0.987    -1.424   -52.415   151.394 
   21.000000   -53.029  -178.399    -0.996    -1.735    -0.987    -1.743   -50.800   133.156 
   25.000000   -58.810  -133.274    -1.000    -2.039    -0.987    -2.062   -50.392   130.954 
   29.000000   -60.079  -165.322    -0.996    -2.389    -0.988    -2.380   -51.030   137.263 
   33.000000   -59.332   169.112    -1.000    -2.707    -0.990    -2.694   -50.729   134.825 
   37.000000   -64.857   104.561    -1.002    -3.036    -0.990    -3.011   -50.330   135.063 
   41.000000   -59.538   150.666    -0.999    -3.325    -0.990    -3.322   -50.402   134.725 
   45.000000   -61.276   119.856    -1.001    -3.661    -0.991    -3.647   -49.847   133.790 
   49.000000   -67.361   130.016    -1.004    -3.972    -0.993    -3.956   -50.869   131.502 
   53.000000   -61.598    26.222    -1.008    -4.275    -0.995    -4.283   -50.654   127.530 
   57.000000   -58.764    56.520    -1.007    -4.622    -0.997    -4.596   -50.809   127.658 
   61.000000   -69.559   135.832    -1.005    -4.937    -0.997    -4.910   -50.977   128.020 
   65.000000   -59.093    -6.643    -1.012    -5.216    -0.999    -5.225   -51.039   123.067 
   69.000000   -61.917    43.263    -1.008    -5.552    -1.001    -5.537   -51.621   122.013 
   73.000000   -59.148    35.369    -1.013    -5.867    -1.004    -5.848   -52.584   114.765 
   77.000000   -55.295    32.456    -1.018    -6.196    -1.006    -6.173   -52.649   112.188 
   81.000000   -59.260    -2.498    -1.014    -6.471    -1.008    -6.483   -53.429   112.867 
   85.000000   -54.356    -2.509    -1.016    -6.800    -1.009    -6.794   -52.968   108.351 
   89.000000   -54.787    39.006    -1.014    -7.153    -1.010    -7.111   -52.801   104.295 
   93.000000   -52.126    -4.657    -1.020    -7.420    -1.011    -7.418   -52.596    92.050 
   97.000000   -55.417     1.811    -1.020    -7.729    -1.012    -7.735   -52.619    89.800 
  100.000000   -51.261    -0.124    -1.022    -7.989    -1.014    -7.969   -51.785    85.353 
  105.000000   -50.014     1.547    -1.018    -8.371    -1.014    -8.366   -51.176    83.314 
  109.000000   -48.378     0.948    -1.025    -8.687    -1.015    -8.684   -50.141    82.405 
  113.000000   -49.443     6.070    -1.019    -8.983    -1.016    -9.004   -49.202    80.509 
  117.000000   -47.201    12.183    -1.023    -9.314    -1.016    -9.315   -48.663    83.988 
  121.000000   -50.273    16.961    -1.016    -9.639    -1.015    -9.631   -48.043    84.279 
  125.000000   -48.249     9.578    -1.019    -9.935    -1.016    -9.949   -47.833    84.565 
  129.000000   -44.421    20.513    -1.028   -10.264    -1.018   -10.253   -48.106    83.572 
  133.000000   -44.212    15.130    -1.032   -10.553    -1.017   -10.568   -48.734    84.621 
  137.000000   -44.479    16.208    -1.023   -10.876    -1.016   -10.878   -50.353    83.531 
  141.000000   -43.160    19.808    -1.030   -11.234    -1.016   -11.197   -51.177    81.028 
  145.000000   -43.116    18.651    -1.029   -11.527    -1.016   -11.507   -53.677    81.625 
  149.000000   -41.799    16.493    -1.033   -11.834    -1.015   -11.815   -55.756    83.189 
  153.000000   -42.883    21.303    -1.033   -12.135    -1.017   -12.131   -56.389    76.768 
  157.000000   -42.847    19.579    -1.033   -12.437    -1.016   -12.435   -58.933    85.210 
  161.000000   -43.153    33.568    -1.032   -12.775    -1.019   -12.753   -57.459    82.982 
  165.000000   -44.314    25.475    -1.029   -13.008    -1.020   -13.064   -56.578    82.135 
  169.000000   -44.169    39.688    -1.033   -13.404    -1.021   -13.392   -54.126    88.621 
  173.000000   -45.228    39.104    -1.036   -13.680    -1.024   -13.704   -53.590    81.975 
  177.000000   -45.754    52.767    -1.028   -14.023    -1.025   -14.022   -52.382    90.383 
  181.000000   -46.707    48.982    -1.037   -14.323    -1.026   -14.330   -52.789    79.909 
  185.000000   -46.332    60.973    -1.037   -14.665    -1.028   -14.641   -52.470    83.564 
  189.000000   -46.320    43.474    -1.040   -14.953    -1.030   -14.955   -52.863    74.021 
  193.000000   -47.332    56.673    -1.035   -15.269    -1.031   -15.267   -51.801    66.636 
  197.000000   -45.381    69.468    -1.038   -15.618    -1.031   -15.587   -51.632    65.988 
  201.000000   -49.432    53.381    -1.038   -15.879    -1.031   -15.891   -50.708    58.849 
  205.000000   -49.561    49.140    -1.034   -16.191    -1.029   -16.203   -50.958    56.842 
  209.000000   -50.001    36.476    -1.041   -16.486    -1.030   -16.514   -49.891    55.691 
  213.000000   -50.186    44.864    -1.040   -16.813    -1.031   -16.821   -49.182    57.265 
  217.000000   -47.572    49.355    -1.044   -17.153    -1.031   -17.139   -49.008    56.440 
  221.000000   -50.538    24.350    -1.041   -17.415    -1.032   -17.452   -48.646    54.004 
  225.000000   -50.813    27.727    -1.041   -17.742    -1.031   -17.763   -48.696    57.116 
  229.000000   -48.988    21.870    -1.046   -18.072    -1.030   -18.073   -48.484    56.600 
  233.000000   -50.462    11.204    -1.040   -18.370    -1.030   -18.393   -48.149    58.403 
  237.000000   -49.013    -0.094    -1.040   -18.655    -1.030   -18.690   -48.071    58.144 
  241.000000   -49.897    21.815    -1.039   -19.022    -1.029   -19.015   -48.207    64.766 
  245.000000   -49.684     4.579    -1.042   -19.297    -1.028   -19.319   -48.435    64.587 
  249.000000   -49.081     7.705    -1.043   -19.612    -1.030   -19.632   -48.206    69.521 
  253.000000   -46.467    -1.568    -1.045   -19.900    -1.031   -19.931   -48.961    68.140 
  257.000000   -46.130    23.592    -1.052   -20.256    -1.032   -20.251   -49.344    70.336 
  261.000000   -47.467     9.524    -1.047   -20.545    -1.033   -20.552   -49.947    70.332 
  265.000000   -48.896     2.241    -1.045   -20.833    -1.036   -20.866   -49.625    71.505 
  269.000000   -49.245     1.469    -1.046   -21.169    -1.037   -21.173   -49.952    70.128 
  273.000000   -47.873     9.474    -1.049   -21.481    -1.038   -21.490   -50.775    70.965 
  277.000000   -47.561    -1.389    -1.051   -21.766    -1.040   -21.800   -50.942    68.342 
  281.000000   -49.694   -14.488    -1.049   -22.070    -1.040   -22.104   -51.927    69.541 
  285.000000   -47.823     3.448    -1.055   -22.411    -1.041   -22.417   -52.003    58.729 
  289.000000   -52.905     0.135    -1.047   -22.750    -1.042   -22.728   -52.116    60.707 
  293.000000   -47.487   -16.397    -1.051   -23.031    -1.042   -23.037   -53.083    60.627 
  297.000000   -52.061   -17.296    -1.048   -23.350    -1.043   -23.355   -52.538    59.032 
  301.000000   -48.620   -29.588    -1.052   -23.637    -1.043   -23.666   -54.072    54.617 
  305.000000   -48.196   -40.644    -1.052   -23.948    -1.045   -23.978   -52.569    50.320 
  309.000000   -48.073   -33.635    -1.050   -24.274    -1.045   -24.291   -53.994    52.916 
  313.000000   -47.919   -25.771    -1.056   -24.604    -1.044   -24.607   -54.793    46.713 
  317.000000   -47.418   -33.905    -1.056   -24.910    -1.045   -24.915   -53.430    39.715 
  321.000000   -47.758   -43.161    -1.050   -25.236    -1.044   -25.227   -53.505    35.336 
  325.000000   -44.948   -30.518    -1.057   -25.512    -1.045   -25.531   -52.028    25.710 
  329.000000   -44.646   -37.317    -1.055   -25.827    -1.044   -25.841   -51.917    29.069 
  333.000000   -44.075   -32.548    -1.057   -26.130    -1.045   -26.162   -51.288    23.290 
  337.000000   -43.172   -29.230    -1.055   -26.446    -1.044   -26.476   -52.083    29.404 
  341.000000   -42.906   -33.814    -1.052   -26.763    -1.045   -26.785   -51.337    28.344 
  345.000000   -43.482   -30.273    -1.054   -27.093    -1.043   -27.093   -51.258    23.197 
  349.000000   -43.150   -20.924    -1.057   -27.398    -1.043   -27.405   -51.714    27.133 
  353.000000   -43.043   -28.713    -1.054   -27.706    -1.043   -27.722   -51.278    29.883 
  357.000000   -42.030   -19.205    -1.054   -28.016    -1.044   -28.024   -51.745    27.044 
  361.000000   -41.677   -23.190    -1.052   -28.308    -1.047   -28.334   -49.988    29.208 
  365.000000   -44.045   -10.641    -1.053   -28.660    -1.046   -28.646   -51.502    26.613 
  369.000000   -42.346   -10.893    -1.059   -28.972    -1.048   -28.957   -51.476    27.175 
  373.000000   -42.733    -7.050    -1.058   -29.276    -1.050   -29.252   -50.438    18.354 
  377.000000   -42.161    -0.595    -1.059   -29.583    -1.051   -29.564   -51.212    22.126 
  381.000000   -42.213     0.204    -1.057   -29.901    -1.052   -29.879   -51.090    24.461 
  385.000000   -41.650     1.004    -1.064   -30.187    -1.054   -30.189   -50.898    16.973 
  389.000000   -42.676    -0.027    -1.060   -30.488    -1.056   -30.497   -50.995    20.068 
  393.000000   -42.213     6.771    -1.064   -30.837    -1.056   -30.811   -51.011    19.167 
  397.000000   -43.256     4.686    -1.060   -31.140    -1.055   -31.132   -51.813    26.900 
  401.000000   -44.241     7.983    -1.058   -31.443    -1.057   -31.440   -51.950    29.856 
  405.000000   -43.604    11.748    -1.064   -31.743    -1.057   -31.757   -51.812    28.064 
  409.000000   -44.234     7.859    -1.063   -32.067    -1.055   -32.063   -52.947    24.964 
  413.000000   -43.287     7.462    -1.065   -32.352    -1.056   -32.372   -53.375    20.509 
  417.000000   -46.179     3.019    -1.060   -32.683    -1.055   -32.683   -52.696    19.781 
  421.000000   -47.531    13.780    -1.062   -33.022    -1.054   -33.009   -53.605    22.528 
  425.000000   -45.707    20.236    -1.067   -33.352    -1.054   -33.313   -54.035     7.170 
  429.000000   -48.123     7.373    -1.061   -33.640    -1.052   -33.619   -54.223    16.062 
  433.000000   -46.505    11.049    -1.064   -33.944    -1.054   -33.937   -53.363     9.155 
  437.000000   -47.714    -2.749    -1.062   -34.255    -1.052   -34.244   -53.268     4.713 
  441.000000   -46.367    -5.466    -1.068   -34.555    -1.053   -34.561   -54.151     6.618 
  445.000000   -46.639   -20.107    -1.063   -34.844    -1.053   -34.861   -53.284    -0.319 
  449.000000   -46.507   -18.322    -1.064   -35.165    -1.051   -35.187   -54.723     1.248 
  453.000000   -48.420   -29.551    -1.057   -35.483    -1.051   -35.491   -56.179    -2.000 
  457.000000   -47.342   -23.839    -1.059   -35.796    -1.052   -35.799   -54.924    -5.143 
  461.000000   -48.731    -9.897    -1.063   -36.113    -1.052   -36.100   -54.181   -13.762 
  465.000000   -48.512    -3.720    -1.065   -36.421    -1.055   -36.401   -52.368   -22.379 
  469.000000   -48.495   -24.549    -1.061   -36.714    -1.055   -36.714   -53.141   -22.313 
  473.000000   -47.123    -8.814    -1.066   -37.052    -1.058   -37.020   -51.279   -18.091 
  477.000000   -44.714   -18.432    -1.070   -37.321    -1.059   -37.333   -51.636   -19.376 
  481.000000   -45.442   -10.788    -1.068   -37.631    -1.060   -37.647   -51.824   -17.983 
  485.000000   -44.262    -7.410    -1.071   -37.937    -1.061   -37.956   -50.841   -16.557 
  489.000000   -49.317    -6.125    -1.066   -38.284    -1.062   -38.259   -50.366   -16.560 
  493.000000   -47.835    -4.674    -1.067   -38.593    -1.064   -38.578   -49.886   -11.401 
  497.000000   -45.658    16.972    -1.075   -38.925    -1.064   -38.900   -50.977    -5.889 
  501.000000   -48.237    12.713    -1.073   -39.238    -1.064   -39.206   -50.884    -5.712 
  505.000000   -47.416    20.018    -1.072   -39.550    -1.064   -39.519   -51.526    -3.165 
  509.000000   -53.083    23.838    -1.065   -39.882    -1.064   -39.838   -51.237     3.985 
  513.000000   -52.119    18.192    -1.069   -40.170    -1.063   -40.147   -51.993     4.209 
  517.000000   -52.026   -10.377    -1.069   -40.462    -1.062   -40.462   -52.915     8.024 
  521.000000   -51.717    21.614    -1.073   -40.811    -1.062   -40.769   -52.648     6.095 
  525.000000   -55.052   -11.235    -1.071   -41.108    -1.061   -41.087   -53.695    13.714 
  529.000000   -51.020   -12.906    -1.074   -41.406    -1.061   -41.400   -55.149    17.489 
  533.000000   -58.415   -51.988    -1.068   -41.713    -1.062   -41.699   -54.246    12.989 
  537.000000   -56.276   -42.374    -1.071   -42.031    -1.060   -42.020   -57.447    18.671 
  541.000000   -50.560   -83.667    -1.064   -42.316    -1.059   -42.331   -56.859    20.742 
  545.000000   -59.852   -72.268    -1.070   -42.669    -1.058   -42.641   -59.072    18.109 
  549.000000   -51.255   -74.974    -1.072   -42.935    -1.060   -42.950   -61.888    24.764 
  553.000000   -51.057   -98.448    -1.066   -43.280    -1.059   -43.255   -64.713     9.044 
  557.000000   -49.039   -84.608    -1.069   -43.569    -1.059   -43.565   -70.889   -54.108 
  561.000000   -46.322   -70.006    -1.073   -43.843    -1.060   -43.863   -63.587   -68.502 
  565.000000   -46.433   -66.362    -1.072   -44.173    -1.061   -44.173   -62.797   -73.655 
  569.000000   -47.743   -72.241    -1.073   -44.488    -1.063   -44.486   -60.314   -72.031 
  573.000000   -49.183   -67.324    -1.073   -44.825    -1.064   -44.790   -55.983   -68.325 
  577.000000   -47.693   -68.429    -1.071   -45.112    -1.066   -45.101   -55.909   -67.188 
  581.000000   -49.548   -62.087    -1.076   -45.459    -1.068   -45.410   -54.643   -60.840 
  585.000000   -48.210   -61.812    -1.074   -45.760    -1.070   -45.713   -52.541   -53.331 
  589.000000   -47.282   -53.318    -1.075   -46.047    -1.070   -46.030   -53.627   -49.664 
  593.000000   -46.576   -62.764    -1.072   -46.369    -1.070   -46.342   -53.406   -53.436 
  597.000000   -46.824   -46.496    -1.080   -46.679    -1.072   -46.654   -52.840   -45.223 
  602.000000   -46.601   -47.396    -1.077   -47.044    -1.072   -47.043   -51.934   -36.439 
  610.000000   -45.771   -42.745    -1.080   -47.652    -1.072   -47.669   -53.020   -21.627 
  618.000000   -53.530   -26.790    -1.079   -48.343    -1.071   -48.297   -52.388   -13.679 
  626.000000   -52.608   -63.714    -1.077   -48.950    -1.071   -48.913   -52.803    -3.503 
  634.000000   -52.070   -83.994    -1.076   -49.562    -1.070   -49.537   -52.571    13.651 
  642.000000   -50.803   -86.217    -1.078   -50.187    -1.067   -50.157   -56.738    34.952 
  650.000000   -51.274   -88.860    -1.079   -50.799    -1.068   -50.784   -55.685    67.578 
  658.000000   -48.289  -103.270    -1.078   -51.400    -1.068   -51.393   -56.814    95.523 
  666.000000   -47.121   -91.755    -1.083   -52.015    -1.069   -52.013   -56.854   140.561 
  674.000000   -47.557  -105.647    -1.082   -52.662    -1.072   -52.623   -57.744   153.258 
  682.000000   -44.912  -105.975    -1.078   -53.288    -1.072   -53.231   -57.601  -165.501 
  690.000000   -46.726   -88.330    -1.084   -53.901    -1.076   -53.860   -56.313  -170.448 
  698.000000   -45.353   -94.875    -1.083   -54.515    -1.077   -54.482   -56.364  -162.019 
  706.000000   -45.936   -91.208    -1.083   -55.134    -1.077   -55.110   -56.517  -161.236 
  714.000000   -46.829   -94.340    -1.081   -55.764    -1.077   -55.739   -57.178  -153.855 
  722.000000   -48.927   -80.719    -1.085   -56.387    -1.078   -56.357   -60.772  -144.995 
  730.000000   -60.491   -95.305    -1.090   -57.057    -1.078   -56.989   -63.275  -134.018 
  738.000000   -52.667  -102.454    -1.089   -57.640    -1.078   -57.617   -66.026   153.040 
  746.000000   -48.394  -133.199    -1.081   -58.265    -1.077   -58.233   -61.916   146.330 
  754.000000   -49.215  -140.447    -1.087   -58.888    -1.076   -58.851   -57.182   151.178 
  762.000000   -46.067  -135.466    -1.084   -59.486    -1.077   -59.467   -53.849   157.790 
  770.000000   -48.053  -142.155    -1.090   -60.124    -1.079   -60.086   -52.592   159.345 
  778.000000   -43.609  -148.560    -1.083   -60.746    -1.080   -60.700   -52.161   164.262 
  786.000000   -44.989  -133.647    -1.091   -61.365    -1.082   -61.317   -51.146   169.322 
  794.000000   -44.568  -134.056    -1.091   -61.992    -1.084   -61.942   -50.638   167.356 
  802.000000   -43.593  -128.282    -1.091   -62.618    -1.084   -62.573   -49.426   162.329 
  810.000000   -42.525  -126.424    -1.088   -63.212    -1.085   -63.187   -49.659   160.440 
  818.000000   -44.020  -132.254    -1.090   -63.870    -1.083   -63.810   -49.899   163.870 
  826.000000   -43.503  -122.192    -1.091   -64.461    -1.085   -64.431   -50.690   152.844 
  834.000000   -46.362  -132.132    -1.097   -65.110    -1.084   -65.066   -49.099   150.047 
  842.000000   -45.130  -133.231    -1.096   -65.708    -1.085   -65.693   -47.714   144.299 
  850.000000   -43.834  -150.383    -1.092   -66.352    -1.082   -66.320   -46.114   146.166 
  858.000000   -42.740  -159.700    -1.091   -66.979    -1.082   -66.942   -44.385   147.803 
  866.000000   -41.477  -158.449    -1.091   -67.587    -1.083   -67.559   -43.785   151.149 
  874.000000   -40.421  -159.896    -1.090   -68.206    -1.085   -68.157   -44.060   160.380 
  882.000000   -39.688  -150.692    -1.091   -68.800    -1.089   -68.770   -43.904   160.323 
  890.000000   -39.681  -151.639    -1.094   -69.431    -1.090   -69.396   -43.664   161.805 
  898.000000   -39.745  -149.746    -1.094   -70.060    -1.091   -70.023   -43.497   161.211 
  906.000000   -38.582  -148.494    -1.089   -70.674    -1.090   -70.646   -43.662   160.454 
  914.000000   -40.522  -140.369    -1.098   -71.288    -1.091   -71.257   -43.992   159.281 
  922.000000   -38.613  -133.088    -1.091   -71.859    -1.089   -71.868   -44.411   156.671 
  930.000000   -42.196  -140.594    -1.102   -72.530    -1.091   -72.496   -44.464   150.838 
  938.000000   -40.342  -146.309    -1.098   -73.157    -1.091   -73.120   -43.927   143.373 
  946.000000   -41.239  -159.608    -1.101   -73.806    -1.091   -73.752   -42.571   139.995 
  954.000000   -39.571  -156.932    -1.098   -74.402    -1.089   -74.370   -41.334   140.763 
  962.000000   -39.964  -159.243    -1.101   -75.022    -1.090   -74.998   -40.377   142.189 
  970.000000   -38.072  -166.114    -1.099   -75.658    -1.092   -75.623   -40.164   144.202 
  978.000000   -38.084  -155.380    -1.102   -76.219    -1.092   -76.234   -39.555   147.812 
  986.000000   -38.239  -156.009    -1.106   -76.853    -1.095   -76.852   -39.321   151.848 
  994.000000   -36.987  -160.799    -1.100   -77.506    -1.096   -77.478   -39.463   153.344 
 1000.000000   -35.969  -155.164    -1.098   -77.958    -1.095   -77.940   -39.602   156.157 
 1025.000000   -37.226  -147.506    -1.103   -79.886    -1.095   -79.876   -40.429   152.966 
 1045.000000   -38.470  -155.412    -1.104   -81.477    -1.096   -81.435   -39.540   139.779 
 1065.000000   -37.249  -169.225    -1.104   -83.044    -1.097   -82.991   -37.558   136.424 
 1084.999936   -37.144  -168.903    -1.110   -84.560    -1.100   -84.533   -36.489   143.542 
 1104.999936   -35.853  -169.668    -1.112   -86.101    -1.102   -86.084   -36.153   150.746 
 1124.999936   -35.952  -160.760    -1.110   -87.659    -1.101   -87.628   -37.133   153.479 
 1144.999936   -37.009  -165.036    -1.113   -89.237    -1.101   -89.189   -37.463   145.159 
 1164.999936   -35.672  -173.854    -1.108   -90.778    -1.102   -90.735   -36.200   137.338 
 1184.999936   -34.694  -176.472    -1.114   -92.300    -1.106   -92.287   -34.695   136.821 
 1204.999936   -33.375  -177.610    -1.116   -93.855    -1.109   -93.837   -33.858   141.909 
 1224.999936   -33.439  -177.040    -1.114   -95.440    -1.107   -95.389   -34.092   147.793 
 1244.999936   -34.471  -173.796    -1.115   -96.987    -1.107   -96.946   -34.820   145.914 
 1264.999936   -35.458   175.614    -1.122   -98.556    -1.109   -98.483   -34.899   141.204 
 1284.999936   -33.741   167.922    -1.118  -100.117    -1.115  -100.029   -34.479   136.527 
 1304.999936   -32.993   169.914    -1.125  -101.631    -1.117  -101.586   -33.360   135.668 
 1324.999936   -31.990   170.640    -1.120  -103.214    -1.115  -103.128   -33.000   138.787 
 1344.999936   -32.289   174.189    -1.115  -104.734    -1.114  -104.683   -32.976   139.345 
 1364.999936   -32.929   168.373    -1.121  -106.303    -1.117  -106.220   -32.997   137.951 
 1384.999936   -32.671   161.747    -1.126  -107.839    -1.122  -107.780   -32.974   135.048 
 1404.999936   -31.165   158.243    -1.127  -109.406    -1.125  -109.335   -32.610   133.301 
 1424.999936   -31.209   161.133    -1.132  -110.929    -1.123  -110.881   -32.329   132.414 
 1444.999936   -30.518   166.499    -1.120  -112.489    -1.120  -112.441   -32.039   130.355 
 1464.999936   -31.103   161.091    -1.127  -114.062    -1.121  -113.980   -31.680   130.253 
 1484.999936   -31.117   157.303    -1.132  -115.606    -1.126  -115.523   -31.580   129.906 
 1504.999936   -30.718   151.547    -1.140  -117.162    -1.131  -117.076   -31.507   128.418 
 1524.999936   -30.137   155.477    -1.137  -118.718    -1.129  -118.637   -31.558   127.804 
 1544.999936   -30.601   161.865    -1.134  -120.212    -1.128  -120.181   -31.633   123.322 
 1564.999936   -30.800   156.149    -1.134  -121.789    -1.128  -121.731   -30.957   121.018 
 1584.999936   -30.091   149.014    -1.135  -123.367    -1.133  -123.275   -30.507   120.045 
 1604.999936   -29.367   144.476    -1.141  -124.921    -1.136  -124.841   -29.998   121.356 
 1624.999936   -28.661   150.632    -1.136  -126.443    -1.133  -126.405   -30.118   121.885 
 1644.999936   -28.985   152.553    -1.138  -128.000    -1.132  -127.953   -30.307   118.666 
 1664.999936   -29.642   151.854    -1.139  -129.524    -1.133  -129.493   -29.977   114.356 
 1684.999936   -29.027   143.316    -1.140  -131.130    -1.138  -131.032   -29.363   111.852 
 1704.999936   -28.363   137.326    -1.147  -132.664    -1.143  -132.592   -28.685   112.263 
 1724.999936   -27.684   142.537    -1.143  -134.186    -1.138  -134.158   -28.517   114.718 
 1744.999936   -27.676   145.779    -1.142  -135.748    -1.138  -135.717   -28.654   113.603 
 1764.999936   -28.495   147.148    -1.142  -137.287    -1.137  -137.259   -28.617   110.809 
 1784.999936   -29.103   137.696    -1.149  -138.808    -1.142  -138.769   -28.350   107.988 
 1804.999936   -27.739   132.390    -1.147  -140.395    -1.147  -140.346   -27.605   107.435 
 1824.999936   -26.839   133.885    -1.148  -141.962    -1.143  -141.902   -27.484   109.551 
 1844.999936   -26.883   135.727    -1.150  -143.512    -1.144  -143.468   -27.624   108.452 
 1864.999936   -27.399   135.855    -1.153  -145.090    -1.142  -145.018   -27.535   106.182 
 1884.999936   -28.283   131.184    -1.155  -146.578    -1.146  -146.530   -27.265   103.024 
 1904.999936   -27.039   121.850    -1.156  -148.191    -1.154  -148.083   -26.631   102.231 
 1924.999936   -26.233   122.330    -1.156  -149.701    -1.151  -149.650   -26.451   104.640 
 1944.999936   -25.832   127.582    -1.154  -151.282    -1.150  -151.211   -26.628   104.297 
 1964.999936   -26.345   130.837    -1.153  -152.834    -1.146  -152.774   -26.776   102.795 
 2000.000000   -27.491   116.095    -1.166  -155.456    -1.154  -155.429   -26.098    97.359 
 2020.000000   -26.041   112.430    -1.166  -157.035    -1.157  -156.989   -25.740    98.790 
 2060.000000   -25.267   120.612    -1.161  -160.203    -1.155  -160.149   -26.117    99.390 
 2100.000000   -26.629   110.741    -1.166  -163.245    -1.162  -163.191   -25.799    91.026 
 2140.000000   -24.554   108.973    -1.167  -166.413    -1.166  -166.306   -25.183    93.172 
 2180.000000   -25.363   115.717    -1.163  -169.571    -1.161  -169.439   -26.024    91.627 
 2220.000000   -25.256    99.014    -1.178  -172.576    -1.168  -172.504   -25.232    84.513 
 2260.000000   -24.091   105.359    -1.173  -175.699    -1.173  -175.659   -24.904    87.547 
 2300.000000   -25.878   102.130    -1.175  -178.787    -1.172  -178.723   -25.578    81.782 
 2340.000000   -24.129    92.678    -1.179   178.125    -1.180   178.184   -24.827    77.067 
 2380.000000   -24.270   101.873    -1.176   174.970    -1.176   175.042   -25.068    78.128 
 2420.000000   -25.441    86.806    -1.178   171.905    -1.177   171.991   -25.100    72.024 
 2460.000000   -23.300    88.806    -1.185   168.800    -1.184   168.851   -24.670    70.813 
 2500.000000   -24.898    91.164    -1.187   165.693    -1.183   165.754   -24.859    67.294 
 2540.000000   -24.084    77.063    -1.192   162.600    -1.184   162.699   -24.656    63.921 
 2580.000000   -23.419    85.480    -1.192   159.486    -1.187   159.549   -24.873    62.322 
 2620.000000   -24.603    75.400    -1.193   156.349    -1.184   156.462   -24.667    57.582 
 2660.000000   -22.646    72.196    -1.205   153.311    -1.193   153.381   -24.381    58.149 
 2700.000000   -23.796    79.860    -1.200   150.193    -1.195   150.251   -24.856    54.038 
 2740.000000   -24.074    64.074    -1.195   147.074    -1.190   147.193   -24.450    49.554 
 2780.000000   -22.613    71.940    -1.203   143.970    -1.200   144.070   -24.657    50.976 
 2820.000000   -24.631    70.420    -1.194   140.800    -1.192   140.929   -25.095    45.258 
 2860.000000   -22.921    59.088    -1.207   137.766    -1.199   137.857   -24.430    43.354 
 2900.000000   -23.260    70.783    -1.210   134.662    -1.208   134.723   -24.904    42.783 
 2940.000000   -24.951    56.683    -1.196   131.522    -1.199   131.624   -25.025    36.124 
 3000.000000   -23.301    63.379    -1.212   126.963    -1.210   126.970   -24.962    34.758 
 3020.000000   -24.844    64.574    -1.203   125.329    -1.202   125.384   -25.130    33.223 
 3060.000000   -24.001    44.210    -1.204   122.282    -1.201   122.308   -24.998    32.377 
 3100.000000   -22.916    57.755    -1.221   119.193    -1.215   119.219   -25.634    29.297 
 3140.000000   -25.752    50.375    -1.207   116.023    -1.207   116.092   -25.448    23.290 
 3180.000000   -23.190    42.779    -1.214   112.996    -1.207   113.034   -25.821    26.051 
 3220.000000   -24.295    56.813    -1.220   109.842    -1.212   109.873   -27.019    19.403 
 3260.000000   -25.285    38.275    -1.210   106.674    -1.205   106.768   -26.149    14.875 
 3300.000000   -22.957    45.274    -1.231   103.653    -1.216   103.721   -27.014    18.332 
 3340.000000   -25.765    48.966    -1.226   100.450    -1.210   100.576   -28.053     5.646 
 3380.000000   -24.381    30.890    -1.217    97.451    -1.206    97.506   -27.431     4.613 
 3420.000000   -23.759    49.651    -1.233    94.264    -1.218    94.413   -28.932     4.206 
 3460.000000   -26.140    40.581    -1.229    91.098    -1.210    91.267   -28.931    -8.054 
 3500.000000   -23.841    37.807    -1.232    88.077    -1.220    88.217   -28.505    -5.945 
 3540.000000   -25.845    49.900    -1.235    84.902    -1.222    85.082   -29.592   -13.298 
 3580.000000   -26.175    30.872    -1.223    81.800    -1.212    81.978   -29.507   -18.387 
 3620.000000   -24.389    43.490    -1.237    78.685    -1.220    78.881   -30.637   -20.790 
 3660.000000   -27.723    43.724    -1.230    75.494    -1.221    75.689   -30.280   -27.706 
 3700.000000   -25.379    31.345    -1.230    72.450    -1.223    72.637   -30.769   -22.045 
 3740.000000   -26.044    49.342    -1.243    69.322    -1.228    69.507   -32.604   -37.037 
 3780.000000   -28.840    30.734    -1.231    66.164    -1.222    66.355   -31.207   -40.420 
 3820.000000   -25.984    35.928    -1.233    63.106    -1.226    63.279   -34.368   -29.708 
 3860.000000   -28.062    52.086    -1.245    59.888    -1.230    60.119   -36.810   -61.774 
 3900.000000   -28.223    25.374    -1.236    56.839    -1.227    57.026   -34.061   -56.693 
 3940.000000   -26.732    43.157    -1.249    53.733    -1.233    53.935   -39.289   -53.833 
 4000.000000   -29.161    28.706    -1.239    49.045    -1.231    49.229   -36.810  -102.551 
 4020.000000   -27.176    31.640    -1.245    47.450    -1.225    47.715   -36.460  -100.591 
 4060.000000   -28.351    51.459    -1.249    44.297    -1.233    44.556   -39.922  -116.324 
 4100.000000   -30.046    30.949    -1.242    41.202    -1.233    41.406   -37.364  -140.717 
 4140.000000   -27.071    41.936    -1.244    38.050    -1.236    38.367   -34.960  -133.331 
 4180.000000   -31.749    53.058    -1.245    34.913    -1.238    35.180   -36.145  -131.506 
 4220.000000   -29.497    25.356    -1.240    31.819    -1.237    32.051   -36.874  -157.802 
 4260.000000   -28.605    45.414    -1.251    28.690    -1.244    28.943   -34.573  -161.249 
 4300.000256   -32.716    34.372    -1.250    25.581    -1.250    25.797   -36.408  -159.241 
 4339.999744   -28.917    32.722    -1.246    22.469    -1.252    22.719   -35.709   178.484 
 4380.000256   -31.488    47.571    -1.249    19.312    -1.253    19.569   -33.836  -178.294 
 4419.999744   -31.183    19.209    -1.257    16.202    -1.250    16.435   -34.635   173.593 
 4460.000256   -29.283    38.229    -1.248    13.100    -1.252    13.335   -33.264   159.133 
 4499.999744   -33.355    37.382    -1.251     9.954    -1.258    10.164   -32.302   153.711 
 4540.000256   -30.313    22.944    -1.252     6.837    -1.255     7.077   -31.175   150.256 
 4579.999744   -32.047    42.337    -1.248     3.644    -1.256     3.945   -30.927   152.995 
 4620.000256   -32.363     6.336    -1.260     0.495    -1.253     0.770   -30.164   140.490 
 4659.999744   -28.610    23.595    -1.257    -2.582    -1.254    -2.310   -27.887   142.936 
 4700.000256   -32.541    25.193    -1.264    -5.747    -1.264    -5.447   -29.232   148.440 
 4739.999744   -29.645     1.364    -1.267    -8.859    -1.260    -8.583   -28.935   130.241 
 4780.000256   -28.844    21.453    -1.260   -11.960    -1.256   -11.677   -26.921   139.021 
 4819.999744   -31.995     5.583    -1.272   -15.125    -1.262   -14.829   -29.016   143.107 
 4860.000256   -28.767    10.124    -1.278   -18.241    -1.261   -17.949   -28.326   121.087 
 4899.999744   -30.842    11.848    -1.266   -21.378    -1.269   -21.102   -26.570   125.867 
 4940.000256   -29.193    -8.985    -1.279   -24.500    -1.266   -24.215   -28.320   125.809 
 5000.000000   -29.285     9.580    -1.271   -29.163    -1.271   -28.924   -26.913   111.645 
 5020.000256   -30.107     0.909    -1.276   -30.807    -1.269   -30.493   -26.808   115.658 
 5059.999744   -28.139    -1.329    -1.279   -33.893    -1.263   -33.635   -27.619   115.589 
 5100.000256   -29.501    12.116    -1.277   -36.975    -1.274   -36.748   -27.716    97.708 
 5139.999744   -29.619   -16.638    -1.288   -40.184    -1.279   -39.914   -25.946    95.499 
 5180.000256   -27.892    -7.688    -1.281   -43.288    -1.269   -43.010   -26.792   103.135 
 5219.999744   -28.997    -8.965    -1.281   -46.464    -1.272   -46.167   -27.750    88.781 
 5260.000256   -26.157   -12.259    -1.290   -49.600    -1.271   -49.345   -24.976    84.883 
 5299.999744   -26.994    -1.054    -1.287   -52.673    -1.283   -52.454   -24.984    92.819 
 5340.000256   -28.381   -15.765    -1.289   -55.820    -1.282   -55.557   -26.323    83.195 
 5379.999744   -26.990   -11.957    -1.286   -58.961    -1.275   -58.675   -25.066    80.463 
 5420.000256   -28.572   -15.667    -1.288   -62.128    -1.279   -61.855   -25.456    90.506 
 5459.999744   -26.836   -22.984    -1.288   -65.291    -1.272   -65.037   -26.727    84.346 
 5500.000256   -26.237    -9.522    -1.285   -68.393    -1.278   -68.131   -25.767    73.237 
 5539.999744   -27.495   -24.743    -1.291   -71.547    -1.288   -71.272   -25.242    74.731 
 5580.000256   -25.969   -18.606    -1.277   -74.656    -1.275   -74.403   -26.765    78.519 
 5619.999744   -28.161    -3.410    -1.282   -77.799    -1.275   -77.513   -27.856    68.722 
 5660.000256   -27.860   -17.620    -1.295   -80.992    -1.276   -80.712   -25.900    65.519 
 5699.999744   -27.306    -5.205    -1.293   -84.043    -1.283   -83.854   -26.401    71.062 
 5740.000256   -32.538   -11.939    -1.295   -87.188    -1.293   -86.930   -27.580    55.391 
 5779.999744   -29.635   -30.590    -1.295   -90.346    -1.292   -90.089   -26.168    57.257 
 5820.000256   -31.970   -14.353    -1.299   -93.484    -1.289   -93.243   -28.611    70.058 
 5859.999744   -31.057   -41.204    -1.299   -96.692    -1.282   -96.420   -29.795    41.161 
 5900.000256   -28.162   -24.254    -1.300   -99.713    -1.288   -99.533   -26.264    39.572 
 5939.999744   -33.758   -32.881    -1.301  -102.844    -1.303  -102.657   -26.941    42.732 
 6000.000000   -29.464   -36.595    -1.302  -107.561    -1.296  -107.425   -26.172    34.175 
 6019.999744   -32.599   -30.993    -1.295  -109.141    -1.299  -108.909   -26.333    36.025 
 6060.000256   -32.929   -66.582    -1.307  -112.332    -1.301  -112.162   -27.115    43.309 
 6099.999744   -30.596   -42.185    -1.305  -115.447    -1.302  -115.337   -27.943    34.130 
 6140.000256   -36.926   -65.928    -1.302  -118.512    -1.318  -118.395   -27.067    23.152 
 6179.999744   -30.934   -82.852    -1.310  -121.752    -1.321  -121.581   -26.996    26.029 
 6220.000256   -35.749   -50.095    -1.312  -124.925    -1.318  -124.719   -29.475    25.091 
 6259.999744   -32.496  -109.908    -1.314  -127.994    -1.319  -127.879   -28.350     7.026 
 6300.000256   -29.746   -78.430    -1.317  -131.112    -1.325  -131.076   -26.370    17.067 
 6339.999744   -36.274  -110.158    -1.327  -134.243    -1.337  -134.212   -29.076    18.914 
 6380.000256   -28.386  -109.889    -1.323  -137.448    -1.334  -137.345   -28.877    -8.721 
 6419.999744   -32.122   -82.805    -1.318  -140.589    -1.327  -140.437   -27.735    -2.139 
 6460.000256   -31.151  -128.263    -1.336  -143.784    -1.325  -143.643   -29.542    -3.435 
 6499.999744   -28.106   -91.671    -1.336  -146.920    -1.328  -146.888   -28.269   -12.824 
 6540.000256   -36.652  -126.094    -1.335  -150.001    -1.334  -149.939   -27.678   -11.128 
 6579.999744   -25.834  -134.964    -1.347  -153.181    -1.341  -153.117   -28.118   -12.981 
 6620.000256   -29.319   -89.678    -1.342  -156.451    -1.328  -156.302   -30.075   -16.522 
 6659.999744   -30.681  -166.922    -1.353  -159.590    -1.326  -159.422   -30.075   -34.569 
 6700.000256   -24.879  -121.721    -1.374  -162.711    -1.342  -162.681   -28.188   -21.782 
 6739.999744   -33.984   -84.042    -1.362  -165.945    -1.341  -165.798   -32.053   -16.697 
 6780.000256   -25.991  -162.418    -1.368  -169.051    -1.347  -168.884   -29.542   -53.662 
 6819.999744   -25.401  -114.680    -1.376  -172.236    -1.344  -172.083   -28.372   -34.203 
 6860.000256   -36.829  -179.417    -1.376  -175.455    -1.337  -175.248   -35.211   -47.634 
 6899.999744   -23.822  -152.401    -1.396  -178.573    -1.352  -178.486   -29.789   -71.937 
 6940.000256   -27.961  -106.959    -1.387   178.225    -1.354   178.315   -29.976   -49.588 
 7000.000000   -23.901  -163.927    -1.406   173.483    -1.357   173.541   -28.916   -85.848 
 7020.000256   -22.849  -142.693    -1.400   171.863    -1.367   172.032   -27.012   -77.445 
 7059.999744   -31.968  -138.454    -1.394   168.628    -1.350   168.835   -28.547   -78.788 
 7100.000256   -23.984  -170.890    -1.413   165.584    -1.361   165.630   -27.246   -86.696 
 7139.999744   -24.504  -129.584    -1.421   162.297    -1.378   162.423   -27.173   -72.785 
 7180.000256   -28.970   177.336    -1.406   159.186    -1.373   159.339   -27.099   -83.519 
 7219.999744   -22.146  -165.295    -1.411   156.023    -1.378   156.268   -24.742   -82.448 
 7260.000256   -28.265  -147.204    -1.419   152.698    -1.368   153.035   -27.012   -82.336 
 7299.999744   -24.395   168.352    -1.424   149.706    -1.366   149.844   -26.640   -98.415 
 7340.000256   -23.225  -152.883    -1.430   146.386    -1.385   146.639   -25.861   -79.851 
 7379.999744   -30.480  -176.170    -1.419   143.161    -1.385   143.487   -27.950   -81.326 
 7420.000256   -22.828   173.505    -1.417   140.111    -1.390   140.456   -25.808  -100.735 
 7459.999744   -26.695  -165.132    -1.424   136.633    -1.376   137.169   -26.278   -99.357 
 7500.000256   -26.422   157.241    -1.440   133.658    -1.372   133.900   -28.604  -112.720 
 7539.999744   -23.074  -169.523    -1.436   130.393    -1.406   130.723   -28.136  -115.964 
 7580.000256   -28.906  -170.329    -1.453   127.051    -1.415   127.432   -27.202  -115.173 
 7619.999744   -23.046   159.048    -1.442   124.106    -1.414   124.469   -25.944  -121.286 
 7660.000256   -24.668  -173.030    -1.441   120.686    -1.417   121.249   -25.938  -139.854 
 7699.999744   -27.103   148.365    -1.476   117.478    -1.408   117.822   -24.269  -145.802 
 7740.000256   -22.566   172.307    -1.450   114.566    -1.428   114.698   -25.316  -131.466 
 7779.999744   -26.231   177.744    -1.453   111.086    -1.443   111.475   -25.599  -140.724 
 7820.000256   -22.511   147.654    -1.482   108.081    -1.446   108.357   -22.306  -141.574 
 7859.999744   -23.704   171.046    -1.459   104.839    -1.442   105.197   -23.238  -138.873 
 7900.000256   -26.860   139.612    -1.483   101.482    -1.433   101.795   -23.856  -154.110 
 7929.999872   -21.516   150.554    -1.486    99.389    -1.469    99.453   -22.409  -143.262 
 7969.999872   -24.130   171.581    -1.474    95.975    -1.474    96.307   -22.457  -138.683 
 8000.000000   -27.950   133.007    -1.487    93.460    -1.446    93.774   -23.455  -149.957 

